     Program PWSCF v.4.3        starts on 11Sep2018 at  1:13:39

     Current dimensions of program PWSCF are:
     Max number of different atomic species (ntypx) = **
     Max number of k-points (npk) =  40000
     Max angular momentum in pseudopotentials (lmaxx) =  3
     Waiting for input...

     Subspace diagonalization in iterative solution of the eigenvalue problem:

   Stick Mesh
   nst = 10457,  nstw =  1155, nsts =  4177
               n.st   n.stw   n.sts    n.g    n.gw   n.gs
   min         163      18      65    9923     362    2501
   max         164      19      66    9926     366    2528
      10457    1155    4177  635163   23329  160693

     bravais-lattice index     =           14
     lattice parameter (a_0)   =      21.7375  a.u.
     unit-cell volume          =    7238.1051 (a.u.)^3
     number of atoms/cell      =           84
     number of atomic types    =            3
     number of electrons       =       672.00
     number of Kohn-Sham states=          403
     kinetic-energy cutoff     =      30.0000  Ry
     charge density cutoff     =     300.0000  Ry
     convergence threshold     =      1.0E-08
     mixing beta               =       0.3000
     number of iterations used =            8  local-TF  mixing
     Exchange-correlation      = SLA  PW   PBE  PBE (1434)
     EXX-fraction              =        0.00

     celldm(1)=  21.737520  celldm(2)=   0.927671  celldm(3)=   0.759628
     celldm(4)=   0.000000  celldm(5)=   0.000000  celldm(6)=   0.000000

     crystal axes: (cart. coord. in units of a_0)
               a(1) = (   1.000000   0.000000   0.000000 )
               a(2) = (   0.000000   0.927671   0.000000 )
               a(3) = (   0.000000   0.000000   0.759628 )

     reciprocal axes: (cart. coord. in units 2 pi/a_0)
               b(1) = (  1.000000  0.000000  0.000000 )
               b(2) = (  0.000000  1.077968  0.000000 )
               b(3) = (  0.000000  0.000000  1.316434 )

     PseudoPot. # 1 for O  read from file O.pbe-van_bm.UPF
     MD5 check sum: ca2828d9fb1f294809e918903b7648d1
     Pseudo is Ultrasoft, Zval =  6.0
     Generated by new atomic code, or converted to UPF format
     Using radial grid of  737 points,  4 beta functions with:
                l(1) =   0
                l(2) =   0
                l(3) =   1
                l(4) =   1
     Q(r) pseudized with  8 coefficients,  rinner =    0.800   0.800   0.800

     PseudoPot. # 2 for V  read from file V.pbe-van-yufengl.UPF
     MD5 check sum: 105a573f738f0b837c178d5a4207921b
     Pseudo is Ultrasoft + core correction, Zval = 13.0
     Generated by new atomic code, or converted to UPF format
     Using radial grid of  853 points,  6 beta functions with:
                l(1) =   0
                l(2) =   0
                l(3) =   1
                l(4) =   1
                l(5) =   2
                l(6) =   2
     Q(r) pseudized with  6 coefficients,  rinner =    1.000   1.000   1.000
                                                       1.000   1.000

     PseudoPot. # 3 for ox read from file O.pbe-van-dgp-1s1.UPF
     MD5 check sum: 2083901d62884ac3a15d661bda1575b3
     Pseudo is Ultrasoft, Zval =  7.0
     Generated by new atomic code, or converted to UPF format
     Using radial grid of  737 points,  4 beta functions with:
                l(1) =   0
                l(2) =   0
                l(3) =   1
                l(4) =   1
     Q(r) pseudized with  8 coefficients,  rinner =    0.800   0.800   0.800

     atomic species   valence    mass     pseudopotential
        O              6.00    15.99900     O ( 1.00)
        V             13.00    50.94000     V ( 1.00)
        OX             7.00    15.99900     ox( 1.00)

     Starting magnetic structure
     atomic species   magnetization
        O            0.000
        V            0.010
        OX           0.000

     LDA+U calculation, Hubbard_lmax = 2
     atomic species  L   Hubbard U  Hubbard alpha
        V            2    0.227846    0.000000

      4 Sym.Ops. (no inversion)

   Cartesian axes

     site n.     atom                  positions (a_0 units)
         1           V   tau(  1) = (   0.1483269   0.0000000   0.3388149  )
         2           V   tau(  2) = (   0.1483269   0.0000000   0.7186289  )
         3           V   tau(  3) = (   0.1483269   0.3092237   0.3388149  )
         4           V   tau(  4) = (   0.1483269   0.3092237   0.7186289  )
         5           V   tau(  5) = (   0.1483269   0.6184474   0.3388149  )
         6           V   tau(  6) = (   0.1483269   0.6184474   0.7186289  )
         7           V   tau(  7) = (   0.3516731   0.1546118   0.0409986  )
         8           V   tau(  8) = (   0.3516731   0.1546118   0.4208125  )
         9           V   tau(  9) = (   0.3516731   0.4638355   0.0409986  )
        10           V   tau( 10) = (   0.3516731   0.4638355   0.4208125  )
        11           V   tau( 11) = (   0.3516731   0.7730592   0.0409986  )
        12           V   tau( 12) = (   0.3516731   0.7730592   0.4208125  )
        13           V   tau( 13) = (   0.6483270   0.1546118   0.0409980  )
        14           V   tau( 14) = (   0.6483270   0.1546118   0.4208119  )
        15           V   tau( 15) = (   0.6483270   0.4638355   0.0409980  )
        16           V   tau( 16) = (   0.6483270   0.4638355   0.4208119  )
        17           V   tau( 17) = (   0.6483270   0.7730592   0.0409980  )
        18           V   tau( 18) = (   0.6483270   0.7730592   0.4208119  )
        19           V   tau( 19) = (   0.8516731   0.0000000   0.3388154  )
        20           V   tau( 20) = (   0.8516731   0.0000000   0.7186293  )
        21           V   tau( 21) = (   0.8516731   0.3092237   0.3388154  )
        22           V   tau( 22) = (   0.8516731   0.3092237   0.7186293  )
        23           V   tau( 23) = (   0.8516731   0.6184474   0.3388154  )
        24           V   tau( 24) = (   0.8516731   0.6184474   0.7186293  )
        25           O   tau( 25) = (   0.1813361   0.1546118   0.3796345  )
        26           O   tau( 26) = (   0.1813361   0.1546118   0.7594484  )
        27           O   tau( 27) = (   0.1813361   0.4638355   0.3796345  )
        28           O   tau( 28) = (   0.1813361   0.4638355   0.7594484  )
        29           O   tau( 29) = (   0.1813361   0.7730592   0.3796345  )
        30           O   tau( 30) = (   0.1813361   0.7730592   0.7594484  )
        31           O   tau( 31) = (   0.3186639   0.0000000   0.0001795  )
        32           O   tau( 32) = (   0.3186639   0.0000000   0.3799935  )
        33           O   tau( 33) = (   0.3186639   0.3092237   0.0001795  )
        34           O   tau( 34) = (   0.3186639   0.3092237   0.3799935  )
        35           O   tau( 35) = (   0.3186639   0.6184474   0.0001795  )
        36           O   tau( 36) = (   0.3186639   0.6184474   0.3799935  )
        37           O   tau( 37) = (   0.6813362   0.0000000   0.0001795  )
        38           O   tau( 38) = (   0.6813362   0.0000000   0.3799935  )
        39           O   tau( 39) = (   0.6813362   0.3092237   0.0001795  )
        40           O   tau( 40) = (   0.6813362   0.3092237   0.3799935  )
        41           O   tau( 41) = (   0.6813362   0.6184474   0.0001795  )
        42           O   tau( 42) = (   0.6813362   0.6184474   0.3799935  )
        43           O   tau( 43) = (   0.8186639   0.1546118   0.3796345  )
        44           O   tau( 44) = (   0.8186639   0.1546118   0.7594485  )
        45           O   tau( 45) = (   0.8186639   0.4638355   0.3796345  )
        46           O   tau( 46) = (   0.8186639   0.4638355   0.7594485  )
        47           O   tau( 47) = (   0.8186639   0.7730592   0.3796345  )
        48           O   tau( 48) = (   0.8186639   0.7730592   0.7594485  )
        49           O   tau( 49) = (   0.8552736   0.0000000   0.2004983  )
        50           O   tau( 50) = (   0.8552736   0.0000000   0.5803123  )
        51           O   tau( 51) = (   0.8552736   0.3092237   0.2004983  )
        52           O   tau( 52) = (   0.8552736   0.3092237   0.5803123  )
        53           O   tau( 53) = (   0.8552736   0.6184474   0.2004983  )
        54           O   tau( 54) = (   0.8552736   0.6184474   0.5803123  )
        55           O   tau( 55) = (   0.6447264   0.1546118   0.1793162  )
        56           O   tau( 56) = (   0.6447264   0.1546118   0.5591301  )
        57           O   tau( 57) = (   0.6447264   0.4638355   0.1793162  )
        58           O   tau( 58) = (   0.6447264   0.4638355   0.5591301  )
        59           O   tau( 59) = (   0.6447264   0.7730592   0.1793162  )
        60           O   tau( 60) = (   0.6447264   0.7730592   0.5591301  )
        61           O   tau( 61) = (   0.3552736   0.1546118   0.1793157  )
        62           O   tau( 62) = (   0.3552736   0.1546118   0.5591297  )
        63           O   tau( 63) = (   0.3552736   0.4638355   0.1793157  )
        64           O   tau( 64) = (   0.3552736   0.4638355   0.5591297  )
        65           O   tau( 65) = (   0.3552736   0.7730592   0.1793157  )
        66           O   tau( 66) = (   0.3552736   0.7730592   0.5591297  )
        67           OX  tau( 67) = (   0.5000000   0.1546118   0.3788864  )
        68           O   tau( 68) = (   0.5000000   0.1546118   0.7587004  )
        69           O   tau( 69) = (   0.5000000   0.4638355   0.3788864  )
        70           O   tau( 70) = (   0.5000000   0.4638355   0.7587004  )
        71           O   tau( 71) = (   0.5000000   0.7730592   0.3788864  )
        72           O   tau( 72) = (   0.5000000   0.7730592   0.7587004  )
        73           O   tau( 73) = (  -0.0000000   0.0000000   0.0009276  )
        74           O   tau( 74) = (  -0.0000000   0.0000000   0.3807415  )
        75           O   tau( 75) = (  -0.0000000   0.3092237   0.0009276  )
        76           O   tau( 76) = (  -0.0000000   0.3092237   0.3807415  )
        77           O   tau( 77) = (  -0.0000000   0.6184474   0.0009276  )
        78           O   tau( 78) = (  -0.0000000   0.6184474   0.3807415  )
        79           O   tau( 79) = (   0.1447264   0.0000000   0.2004987  )
        80           O   tau( 80) = (   0.1447264   0.0000000   0.5803126  )
        81           O   tau( 81) = (   0.1447264   0.3092237   0.2004987  )
        82           O   tau( 82) = (   0.1447264   0.3092237   0.5803126  )
        83           O   tau( 83) = (   0.1447264   0.6184474   0.2004987  )
        84           O   tau( 84) = (   0.1447264   0.6184474   0.5803126  )

     number of k points=    16  Fermi-Dirac smearing, width (Ry)=  0.0019
                       cart. coord. in units 2pi/a_0
        k(    1) = (   0.0000000   0.0000000   0.0000000), wk =   0.1250000
        k(    2) = (   0.0000000   0.0000000  -0.6582170), wk =   0.1250000
        k(    3) = (   0.0000000  -0.5389842   0.0000000), wk =   0.1250000
        k(    4) = (   0.0000000  -0.5389842  -0.6582170), wk =   0.1250000
        k(    5) = (  -0.5000000   0.0000000   0.0000000), wk =   0.1250000
        k(    6) = (  -0.5000000   0.0000000  -0.6582170), wk =   0.1250000
[...]
 0.000  0.000  0.004 -0.000  0.316
nsum = 111.1954074
 exit write_ns

 ------ SPIN UP ------------

          k = 0.0000 0.0000 0.0000 ( 20075 PWs)   bands (ev):

   -60.8715 -60.8689 -59.9327 -59.9309 -59.9305 -59.9287 -59.9245 -59.9227
   -59.9223 -59.9209 -59.8459 -59.8438 -59.7724 -59.7704 -59.7125 -59.7109
   -59.7103 -59.7088 -59.6958 -59.6938 -59.6936 -59.6919 -59.6407 -59.6387
   -34.9605 -34.8886 -34.7453 -34.7376 -34.6619 -34.6587 -33.8950 -33.8926
   -33.8862 -33.8843 -33.8812 -33.8790 -33.8750 -33.8723 -33.8706 -33.8683
   -33.8483 -33.8377 -33.8342 -33.8341 -33.8302 -33.8268 -33.8209 -33.8191
   -33.8017 -33.7970 -33.7847 -33.7820 -33.7755 -33.7708 -33.7614 -33.7566
   -33.7447 -33.7249 -33.7223 -33.7176 -33.7120 -33.7051 -33.6816 -33.6781
   -33.6741 -33.6722 -33.6705 -33.6692 -33.6632 -33.6631 -33.6598 -33.6462
   -33.6383 -33.6304 -33.6264 -33.6257 -33.6221 -33.6134 -33.6025 -33.6000
   -33.5964 -33.5962 -33.5820 -33.5759 -33.5610 -33.5595 -33.5482 -33.5460
   -33.5379 -33.5279 -33.5218 -33.5163 -33.5106 -33.4808 -33.4749 -33.4742
   -17.2542 -13.5710 -13.4934 -13.2474 -13.1156 -13.0233 -12.9040 -12.9015
   -12.7931 -12.6813 -12.6614 -12.5393 -12.5164 -12.5135 -12.4669 -12.4529
   -12.4072 -12.2977 -12.2051 -12.1907 -12.1680 -12.1635 -12.1163 -12.1113
   -12.0833 -12.0618 -12.0489 -12.0261 -12.0070 -11.9513 -11.9273 -11.9018
   -11.8955 -11.8902 -11.8733 -11.8575 -11.8037 -11.7776 -11.7287 -11.7212
   -11.6913 -11.6789 -11.6724 -11.6666 -11.6491 -11.6421 -11.6001 -11.5982
   -11.5499 -11.5369 -11.4789 -11.4726 -11.4660 -11.4622 -11.4338 -11.4304
   -11.4164 -11.4025 -11.3760 -11.3403  -3.9379  -2.3832  -2.2442  -0.8303
    -0.7932  -0.7589  -0.7471  -0.4589  -0.4540  -0.4215  -0.4158  -0.3234
    -0.2354  -0.2298  -0.2292  -0.1817  -0.1056  -0.0562  -0.0517   0.0257
     0.0534   0.0726   0.0809   0.0883   0.1052   0.1120   0.1186   0.1733
     0.1777   0.1833   0.1893   0.2739   0.3014   0.3346   0.3606   0.3693
     0.3801   0.4117   0.4327   0.4679   0.5095   0.5154   0.5780   0.5966
     0.6636   0.6900   0.7041   0.7202   0.7484   0.7885   0.8047   0.8188
     0.8240   0.8643   0.8884   1.0501   1.0605   1.1590   1.1781   1.2322
     1.2694   1.2938   1.3041   1.3686   1.3706   1.3838   1.3993   1.4009
     1.5137   1.5152   1.5635   1.5637   1.5638   1.5680   1.5685   1.5871
     1.6123   1.6366   1.6409   1.6741   1.6824   1.6904   1.7786   1.8092
     1.8359   1.8932   1.9368   1.9762   1.9935   2.0058   2.0136   2.0287
     2.0338   2.0745   2.0842   2.0891   2.0928   2.0991   2.1179   2.1894
     2.2292   2.2394   2.2668   2.3135   2.3248   2.3500   2.3591   2.3791
     2.3878   2.4453   2.4796   2.4877   2.4968   2.5354   2.5514   2.5541
     2.5832   2.5921   2.6075   2.6393   2.6682   2.6789   2.6808   2.6996
     2.7012   2.7307   2.7874   2.8752   2.8831   2.9226   2.9307   2.9418
     2.9789   2.9907   3.0457   3.0916   3.1526   3.1851   3.2136   3.2142
     3.2227   3.2440   3.2691   3.3131   3.3275   3.3676   3.3753   3.3794
     3.4257   3.4396   3.4585   3.4803   3.4852   3.4960   3.5174   3.5537
     3.5741   3.6772   3.6857   3.6880   3.6953   3.7431   3.7860   3.8636
     3.8977   3.9282   3.9345   3.9552   4.0278   4.1144   4.1341   4.1407
     4.1459   4.2029   4.2436   4.2578   4.2954   4.3084   4.3528   4.3974
     5.9024   6.4673   6.4841   6.5009   6.5513   6.6400   6.7455   6.8112
     6.8708   6.8998   6.9013   6.9103   7.0222   7.0933   7.0993   7.1290
     7.2113   7.2593   7.4101   7.4796   7.5192   7.5823   7.6224   7.6246
     7.6507   7.6542   7.6850   7.7055   7.7473   7.7585   7.7938   7.8166
     7.8398   7.8680   7.8685   7.8700   7.8994   7.9155   7.9417   7.9596
     7.9673   7.9760   7.9865   8.0296   8.0359   8.0615   8.0617   8.0958
     8.0975   8.1021   8.1044   8.1694   8.2126   8.2724   8.3110   8.3120
     8.3279   8.3331   8.3787   8.3856   8.4455   8.4762   8.5144   8.5387
     8.5409   8.5578   8.5975

[...]

          k =-0.5000 0.0000 0.0000 ( 20098 PWs)   bands (ev):

[...]

 ------ SPIN DOWN ----------

[...]

          k = 0.0000-0.5390-0.6582 ( 20040 PWs)   bands (ev):

[...]

          k =-0.5000-0.5390-0.6582 ( 20080 PWs)   bands (ev):

   -60.8711 -60.8685 -59.9320 -59.9307 -59.9305 -59.9299 -59.9233 -59.9226
   -59.9224 -59.9212 -59.8459 -59.8438 -59.7724 -59.7703 -59.7122 -59.7109
   -59.7102 -59.7091 -59.6956 -59.6938 -59.6937 -59.6919 -59.6407 -59.6387
   -34.9601 -34.8883 -34.7449 -34.7373 -34.6616 -34.6585 -33.8907 -33.8897
   -33.8884 -33.8871 -33.8796 -33.8782 -33.8775 -33.8767 -33.8616 -33.8590
   -33.8583 -33.8545 -33.8340 -33.8339 -33.8304 -33.8238 -33.8208 -33.8136
   -33.8025 -33.7928 -33.7883 -33.7819 -33.7691 -33.7641 -33.7602 -33.7578
   -33.7525 -33.7248 -33.7243 -33.7189 -33.7101 -33.7083 -33.6790 -33.6785
   -33.6777 -33.6719 -33.6691 -33.6654 -33.6646 -33.6645 -33.6636 -33.6349
   -33.6336 -33.6292 -33.6283 -33.6269 -33.6236 -33.6193 -33.6131 -33.6020
   -33.5939 -33.5881 -33.5811 -33.5742 -33.5663 -33.5597 -33.5501 -33.5469
   -33.5269 -33.5235 -33.5232 -33.5226 -33.5056 -33.4801 -33.4786 -33.4779
   -17.2541 -13.4549 -13.4052 -13.2447 -13.2358 -13.0607 -13.0455 -12.9853
   -12.9819 -12.5818 -12.5259 -12.5197 -12.5032 -12.4824 -12.4709 -12.3388
   -12.2586 -12.2462 -12.2434 -12.1994 -12.1535 -12.1250 -12.1246 -12.1100
   -12.0795 -12.0590 -12.0391 -12.0319 -12.0085 -11.9899 -11.9654 -11.9588
   -11.9436 -11.9112 -11.9008 -11.8692 -11.8029 -11.7799 -11.7263 -11.7207
   -11.6854 -11.6850 -11.6615 -11.6576 -11.6530 -11.6502 -11.5969 -11.5853
   -11.5425 -11.5362 -11.4757 -11.4704 -11.4644 -11.4635 -11.4426 -11.4414
   -11.4154 -11.4097 -11.3819 -11.3804  -3.9383  -2.3748  -2.2461  -0.6746
    -0.6675  -0.6434  -0.6292  -0.3800  -0.3476  -0.2888  -0.2834  -0.2797
    -0.2769  -0.2679  -0.2582  -0.1740  -0.1618  -0.1385  -0.1243  -0.0990
    -0.0689  -0.0548  -0.0068   0.0220   0.0781   0.1201   0.1243   0.1318
     0.1362   0.2626   0.2777   0.3030   0.3348   0.3496   0.4082   0.4097
     0.4558   0.5171   0.5310   0.5898   0.6153   0.6919   0.7001   0.7368
     0.8034   0.8318   0.8334   0.8342   0.8623   0.8756   0.9128   0.9256
     0.9281   0.9688   0.9951   0.9983   1.0404   1.0614   1.0620   1.1201
     1.1214   1.1396   1.1568   1.1638   1.1852   1.2007   1.2027   1.2391
     1.2457   1.2658   1.3755   1.3867   1.4239   1.4254   1.4401   1.4606
     1.5063   1.5080   1.5201   1.6537   1.6795   1.6966   1.7025   1.7364
     1.7479   1.7907   1.8317   1.8355   1.8505   1.8741   1.9023   1.9329
     1.9349   1.9830   1.9869   2.0204   2.0330   2.2323   2.2405   2.2485
     2.2571   2.2823   2.3023   2.3933   2.4112   2.4232   2.4425   2.4561
     2.4767   2.4776   2.5050   2.5439   2.5475   2.5805   2.5972   2.6172
     2.6618   2.6890   2.7151   2.7287   2.7359   2.7572   2.7622   2.7861
     2.7864   2.8018   2.8086   2.8303   2.8424   2.9029   2.9039   2.9264
     2.9368   3.0643   3.0880   3.1272   3.1385   3.1567   3.1590   3.1623
     3.1716   3.2387   3.2592   3.3071   3.3801   3.4353   3.4381   3.5105
     3.5174   3.5193   3.5622   3.5894   3.6058   3.6286   3.6320   3.6550
     3.6852   3.6889   3.7021   3.8142   3.8225   3.8364   3.8385   3.8631
     3.8763   3.9020   3.9167   3.9202   3.9529   4.0046   4.0055   4.0111
     4.0406   4.0420   4.0580   4.1021   4.1285   4.1475   4.1551   4.1748
     5.9410   6.4468   6.5761   6.5897   6.6182   6.7291   6.7532   6.8334
     6.8402   6.8599   6.8691   7.0249   7.0283   7.0816   7.0872   7.1182
     7.3540   7.3935   7.4359   7.5682   7.5953   7.6193   7.6842   7.7313
     7.7394   7.7431   7.7880   7.8066   7.8143   7.8575   7.8580   7.8710
     7.8748   7.8873   7.9013   7.9099   7.9197   7.9200   7.9376   7.9482
     7.9498   7.9515   8.0071   8.0145   8.0275   8.0432   8.0934   8.0944
     8.1103   8.1197   8.1357   8.1360   8.1934   8.2526   8.2706   8.2861
     8.2880   8.3011   8.3151   8.3247   8.3258   8.3291   8.4482   8.4672
     8.4728   8.5190   8.5299

     the Fermi energy is     5.1249 ev

!    total energy              =   -5390.22525778 Ry
     Harris-Foulkes estimate   =   -5390.22525777 Ry
     estimated scf accuracy    <          4.5E-09 Ry

     The total energy is the sum of the following terms:

     one-electron contribution =   -3528.91944202 Ry
     hartree contribution      =    1993.41078042 Ry
     xc contribution           =    -854.69929758 Ry
     ewald contribution        =   -3006.63987827 Ry
     Hubbard energy            =       6.62257966 Ry
     smearing contrib. (-TS)   =      -0.00000000 Ry

     total magnetization       =    -0.00 Bohr mag/cell
     absolute magnetization    =     0.00 Bohr mag/cell

     convergence has been achieved in  25 iterations
 forces --- starting time for forces:

     Forces acting on atoms (Ry/au):

 forces --- nonlocal contribution:
 forces --- local contribution:

     negative rho (up, down):  0.119E-01 0.119E-01
 forces --- NLCC contribution:
 forces --- entering force_hub:
           1  forces --- i/o, init_us_2, calbec, s_psi:
           1  forces --- dn/dtau:
           2  forces --- i/o, init_us_2, calbec, s_psi:
           2  forces --- dn/dtau:
           3  forces --- i/o, init_us_2, calbec, s_psi:
           3  forces --- dn/dtau:
           4  forces --- i/o, init_us_2, calbec, s_psi:
           4  forces --- dn/dtau:
           5  forces --- i/o, init_us_2, calbec, s_psi:
           5  forces --- dn/dtau:
           6  forces --- i/o, init_us_2, calbec, s_psi:
           6  forces --- dn/dtau:
           7  forces --- i/o, init_us_2, calbec, s_psi:
           7  forces --- dn/dtau:
           8  forces --- i/o, init_us_2, calbec, s_psi:
           8  forces --- dn/dtau:
           9  forces --- i/o, init_us_2, calbec, s_psi:
           9  forces --- dn/dtau:
          10  forces --- i/o, init_us_2, calbec, s_psi:
          10  forces --- dn/dtau:
          11  forces --- i/o, init_us_2, calbec, s_psi:
          11  forces --- dn/dtau:
          12  forces --- i/o, init_us_2, calbec, s_psi:
          12  forces --- dn/dtau:
          13  forces --- i/o, init_us_2, calbec, s_psi:
          13  forces --- dn/dtau:
          14  forces --- i/o, init_us_2, calbec, s_psi:
          14  forces --- dn/dtau:
          15  forces --- i/o, init_us_2, calbec, s_psi:
          15  forces --- dn/dtau:
          16  forces --- i/o, init_us_2, calbec, s_psi:
          16  forces --- dn/dtau:
 forces --- Hubbard contribution:
 forces --- ionic contribution:
 forces --- SCF contribution:
     atom   1 type  2   force =    -0.01079109   -0.01851317   -0.01894898
     atom   2 type  2   force =     0.00019635   -0.00525518   -0.00915789
     atom   3 type  2   force =    -0.01079109    0.01851317   -0.01894898
     atom   4 type  2   force =     0.00019635    0.00525518   -0.00915789
     atom   5 type  2   force =    -0.00165381    0.00000000   -0.01668622
     atom   6 type  2   force =     0.00128187    0.00000000   -0.01237323
     atom   7 type  2   force =    -0.01261456    0.00000000    0.00855631
     atom   8 type  2   force =    -0.19559818    0.00000000    0.03215702
     atom   9 type  2   force =    -0.00469581    0.00633681    0.01195712
     atom  10 type  2   force =    -0.00601341    0.02715391    0.01763616
     atom  11 type  2   force =    -0.00469581   -0.00633681    0.01195712
     atom  12 type  2   force =    -0.00601341   -0.02715391    0.01763616
     atom  13 type  2   force =     0.01261456    0.00000000    0.00855631
     atom  14 type  2   force =     0.19559818    0.00000000    0.03215702
     atom  15 type  2   force =     0.00469581    0.00633681    0.01195712
     atom  16 type  2   force =     0.00601341    0.02715391    0.01763616
     atom  17 type  2   force =     0.00469581   -0.00633681    0.01195712
     atom  18 type  2   force =     0.00601341   -0.02715391    0.01763616
     atom  19 type  2   force =     0.01079109   -0.01851317   -0.01894898
     atom  20 type  2   force =    -0.00019635   -0.00525518   -0.00915789
     atom  21 type  2   force =     0.01079109    0.01851317   -0.01894898
     atom  22 type  2   force =    -0.00019635    0.00525518   -0.00915789
     atom  23 type  2   force =     0.00165381    0.00000000   -0.01668622
     atom  24 type  2   force =    -0.00128187    0.00000000   -0.01237323
     atom  25 type  1   force =     0.02620055    0.00000000    0.01672651
     atom  26 type  1   force =     0.00046181    0.00000000    0.00284312
     atom  27 type  1   force =    -0.00071360   -0.01125871    0.00168936
     atom  28 type  1   force =    -0.00294476   -0.00388943    0.00218663
     atom  29 type  1   force =    -0.00071360    0.01125871    0.00168936
     atom  30 type  1   force =    -0.00294476    0.00388943    0.00218663
     atom  31 type  1   force =     0.00596190    0.00766840   -0.00328293
     atom  32 type  1   force =     0.02538945    0.04327834    0.00250875
     atom  33 type  1   force =     0.00596190   -0.00766840   -0.00328293
     atom  34 type  1   force =     0.02538945   -0.04327834    0.00250875
     atom  35 type  1   force =     0.00544843    0.00000000   -0.00175626
     atom  36 type  1   force =     0.00851551    0.00000000    0.00127053
     atom  37 type  1   force =    -0.00596190    0.00766840   -0.00328293
     atom  38 type  1   force =    -0.02538945    0.04327834    0.00250875
     atom  39 type  1   force =    -0.00596190   -0.00766840   -0.00328293
     atom  40 type  1   force =    -0.02538945   -0.04327834    0.00250875
     atom  41 type  1   force =    -0.00544843    0.00000000   -0.00175626
     atom  42 type  1   force =    -0.00851551    0.00000000    0.00127053
     atom  43 type  1   force =    -0.02620055    0.00000000    0.01672651
     atom  44 type  1   force =    -0.00046181    0.00000000    0.00284312
     atom  45 type  1   force =     0.00071360   -0.01125871    0.00168936
     atom  46 type  1   force =     0.00294476   -0.00388943    0.00218663
     atom  47 type  1   force =     0.00071360    0.01125871    0.00168936
     atom  48 type  1   force =     0.00294476    0.00388943    0.00218663
     atom  49 type  1   force =    -0.00022953    0.00116297    0.00738429
     atom  50 type  1   force =    -0.00140283    0.00124503   -0.00431006
     atom  51 type  1   force =    -0.00022953   -0.00116297    0.00738429
     atom  52 type  1   force =    -0.00140283   -0.00124503   -0.00431006
     atom  53 type  1   force =    -0.00016634    0.00000000    0.00490799
     atom  54 type  1   force =    -0.00056536    0.00000000   -0.00109161
     atom  55 type  1   force =    -0.00478592    0.00000000    0.01529074
     atom  56 type  1   force =    -0.01163789    0.00000000   -0.02695970
     atom  57 type  1   force =    -0.00008920   -0.00126363    0.00281223
     atom  58 type  1   force =    -0.00059936   -0.00195604   -0.00566270
     atom  59 type  1   force =    -0.00008920    0.00126363    0.00281223
     atom  60 type  1   force =    -0.00059936    0.00195604   -0.00566270
[...]
     atom  70 type  1   force =     0.00000000   -0.00116806   -0.00908492
     atom  71 type  1   force =     0.00000000    0.00525894   -0.00793769
     atom  72 type  1   force =     0.00000000    0.00116806   -0.00908492
     atom  73 type  1   force =     0.00000000    0.00072085    0.00822811
     atom  74 type  1   force =     0.00000000    0.00321069    0.00533873
     atom  75 type  1   force =     0.00000000   -0.00072085    0.00822811
     atom  76 type  1   force =     0.00000000   -0.00321069    0.00533873
     atom  77 type  1   force =     0.00000000    0.00000000    0.00824051
     atom  78 type  1   force =     0.00000000    0.00000000    0.00703232
     atom  79 type  1   force =     0.00022953    0.00116297    0.00738429
     atom  80 type  1   force =     0.00140283    0.00124503   -0.00431006
     atom  81 type  1   force =     0.00022953   -0.00116297    0.00738429
     atom  82 type  1   force =     0.00140283   -0.00124503   -0.00431006
     atom  83 type  1   force =     0.00016634    0.00000000    0.00490799
     atom  84 type  1   force =     0.00056536    0.00000000   -0.00109161

     Total force =     0.330773     Total SCF correction =     0.000296

     entering subroutine stress ...

     negative rho (up, down):  0.119E-01 0.119E-01
          total   stress  (Ry/bohr**3)                   (kbar)     P=   21.73
   0.00029394   0.00000000   0.00000000         43.24      0.00      0.00
   0.00000000   0.00015533   0.00000000          0.00     22.85      0.00
   0.00000000   0.00000000  -0.00000619          0.00      0.00     -0.91

     Writing output data file v2o5.O67-FCH.save

     General routines

     Parallel routines

   This run was terminated on:   2:16:54  11Sep2018

   JOB DONE.