     Program PWSCF v.4.3        starts on  6Sep2018 at 14:27:26

     Current dimensions of program PWSCF are:
     Max number of different atomic species (ntypx) = **
     Max number of k-points (npk) =  40000
     Max angular momentum in pseudopotentials (lmaxx) =  3
     Waiting for input...

     Subspace diagonalization in iterative solution of the eigenvalue problem:

   Stick Mesh
   nst = 10457,  nstw =  1155, nsts =  4177
               n.st   n.stw   n.sts    n.g    n.gw   n.gs
   min         163      18      65    9923     362    2501
   max         164      19      66    9926     366    2528
      10457    1155    4177  635163   23329  160693

     bravais-lattice index     =           14
     lattice parameter (a_0)   =      21.7375  a.u.
     unit-cell volume          =    7238.1051 (a.u.)^3
     number of atoms/cell      =           84
     number of atomic types    =            3
     number of electrons       =       672.00
     number of Kohn-Sham states=          403
     kinetic-energy cutoff     =      30.0000  Ry
     charge density cutoff     =     300.0000  Ry
     convergence threshold     =      1.0E-08
     mixing beta               =       0.3000
     number of iterations used =            8  local-TF  mixing
     Exchange-correlation      = SLA  PW   PBE  PBE (1434)
     EXX-fraction              =        0.00

     celldm(1)=  21.737520  celldm(2)=   0.927671  celldm(3)=   0.759628
     celldm(4)=   0.000000  celldm(5)=   0.000000  celldm(6)=   0.000000

     crystal axes: (cart. coord. in units of a_0)
               a(1) = (   1.000000   0.000000   0.000000 )
               a(2) = (   0.000000   0.927671   0.000000 )
               a(3) = (   0.000000   0.000000   0.759628 )

     reciprocal axes: (cart. coord. in units 2 pi/a_0)
               b(1) = (  1.000000  0.000000  0.000000 )
               b(2) = (  0.000000  1.077968  0.000000 )
               b(3) = (  0.000000  0.000000  1.316434 )

     PseudoPot. # 1 for O  read from file O.pbe-van_bm.UPF
     MD5 check sum: ca2828d9fb1f294809e918903b7648d1
     Pseudo is Ultrasoft, Zval =  6.0
     Generated by new atomic code, or converted to UPF format
     Using radial grid of  737 points,  4 beta functions with:
                l(1) =   0
                l(2) =   0
                l(3) =   1
                l(4) =   1
     Q(r) pseudized with  8 coefficients,  rinner =    0.800   0.800   0.800

     PseudoPot. # 2 for V  read from file V.pbe-van-yufengl.UPF
     MD5 check sum: 105a573f738f0b837c178d5a4207921b
     Pseudo is Ultrasoft + core correction, Zval = 13.0
     Generated by new atomic code, or converted to UPF format
     Using radial grid of  853 points,  6 beta functions with:
                l(1) =   0
                l(2) =   0
                l(3) =   1
                l(4) =   1
                l(5) =   2
                l(6) =   2
     Q(r) pseudized with  6 coefficients,  rinner =    1.000   1.000   1.000
                                                       1.000   1.000

     PseudoPot. # 3 for ox read from file O.pbe-van-dgp-1s1.UPF
     MD5 check sum: 2083901d62884ac3a15d661bda1575b3
     Pseudo is Ultrasoft, Zval =  7.0
     Generated by new atomic code, or converted to UPF format
     Using radial grid of  737 points,  4 beta functions with:
                l(1) =   0
                l(2) =   0
                l(3) =   1
                l(4) =   1
     Q(r) pseudized with  8 coefficients,  rinner =    0.800   0.800   0.800

     atomic species   valence    mass     pseudopotential
        O              6.00    15.99900     O ( 1.00)
        V             13.00    50.94000     V ( 1.00)
        OX             7.00    15.99900     ox( 1.00)

     Starting magnetic structure
     atomic species   magnetization
        O            0.000
        V            0.010
        OX           0.000

     LDA+U calculation, Hubbard_lmax = 2
     atomic species  L   Hubbard U  Hubbard alpha
        V            2    0.227846    0.000000

      2 Sym.Ops. (no inversion)

   Cartesian axes

     site n.     atom                  positions (a_0 units)
         1           V   tau(  1) = (   0.1483269   0.0000000   0.3388149  )
         2           V   tau(  2) = (   0.1483269   0.0000000   0.7186289  )
         3           V   tau(  3) = (   0.1483269   0.3092237   0.3388149  )
         4           V   tau(  4) = (   0.1483269   0.3092237   0.7186289  )
         5           V   tau(  5) = (   0.1483269   0.6184474   0.3388149  )
         6           V   tau(  6) = (   0.1483269   0.6184474   0.7186289  )
         7           V   tau(  7) = (   0.3516731   0.1546118   0.0409986  )
         8           V   tau(  8) = (   0.3516731   0.1546118   0.4208125  )
         9           V   tau(  9) = (   0.3516731   0.4638355   0.0409986  )
        10           V   tau( 10) = (   0.3516731   0.4638355   0.4208125  )
        11           V   tau( 11) = (   0.3516731   0.7730592   0.0409986  )
        12           V   tau( 12) = (   0.3516731   0.7730592   0.4208125  )
        13           V   tau( 13) = (   0.6483270   0.1546118   0.0409980  )
        14           V   tau( 14) = (   0.6483270   0.1546118   0.4208119  )
        15           V   tau( 15) = (   0.6483270   0.4638355   0.0409980  )
        16           V   tau( 16) = (   0.6483270   0.4638355   0.4208119  )
        17           V   tau( 17) = (   0.6483270   0.7730592   0.0409980  )
        18           V   tau( 18) = (   0.6483270   0.7730592   0.4208119  )
        19           V   tau( 19) = (   0.8516731   0.0000000   0.3388154  )
        20           V   tau( 20) = (   0.8516731   0.0000000   0.7186293  )
        21           V   tau( 21) = (   0.8516731   0.3092237   0.3388154  )
        22           V   tau( 22) = (   0.8516731   0.3092237   0.7186293  )
        23           V   tau( 23) = (   0.8516731   0.6184474   0.3388154  )
        24           V   tau( 24) = (   0.8516731   0.6184474   0.7186293  )
        25           O   tau( 25) = (   0.1813361   0.1546118   0.3796345  )
        26           O   tau( 26) = (   0.1813361   0.1546118   0.7594484  )
        27           O   tau( 27) = (   0.1813361   0.4638355   0.3796345  )
        28           O   tau( 28) = (   0.1813361   0.4638355   0.7594484  )
        29           O   tau( 29) = (   0.1813361   0.7730592   0.3796345  )
        30           O   tau( 30) = (   0.1813361   0.7730592   0.7594484  )
        31           O   tau( 31) = (   0.3186639   0.0000000   0.0001795  )
        32           O   tau( 32) = (   0.3186639   0.0000000   0.3799935  )
        33           O   tau( 33) = (   0.3186639   0.3092237   0.0001795  )
        34           O   tau( 34) = (   0.3186639   0.3092237   0.3799935  )
        35           O   tau( 35) = (   0.3186639   0.6184474   0.0001795  )
        36           O   tau( 36) = (   0.3186639   0.6184474   0.3799935  )
        37           O   tau( 37) = (   0.6813362   0.0000000   0.0001795  )
        38           O   tau( 38) = (   0.6813362   0.0000000   0.3799935  )
        39           O   tau( 39) = (   0.6813362   0.3092237   0.0001795  )
        40           O   tau( 40) = (   0.6813362   0.3092237   0.3799935  )
        41           O   tau( 41) = (   0.6813362   0.6184474   0.0001795  )
        42           O   tau( 42) = (   0.6813362   0.6184474   0.3799935  )
        43           O   tau( 43) = (   0.8186639   0.1546118   0.3796345  )
        44           O   tau( 44) = (   0.8186639   0.1546118   0.7594485  )
        45           O   tau( 45) = (   0.8186639   0.4638355   0.3796345  )
        46           O   tau( 46) = (   0.8186639   0.4638355   0.7594485  )
        47           O   tau( 47) = (   0.8186639   0.7730592   0.3796345  )
        48           O   tau( 48) = (   0.8186639   0.7730592   0.7594485  )
        49           OX  tau( 49) = (   0.8552736   0.0000000   0.2004983  )
        50           O   tau( 50) = (   0.8552736   0.0000000   0.5803123  )
        51           O   tau( 51) = (   0.8552736   0.3092237   0.2004983  )
        52           O   tau( 52) = (   0.8552736   0.3092237   0.5803123  )
        53           O   tau( 53) = (   0.8552736   0.6184474   0.2004983  )
        54           O   tau( 54) = (   0.8552736   0.6184474   0.5803123  )
        55           O   tau( 55) = (   0.6447264   0.1546118   0.1793162  )
        56           O   tau( 56) = (   0.6447264   0.1546118   0.5591301  )
        57           O   tau( 57) = (   0.6447264   0.4638355   0.1793162  )
        58           O   tau( 58) = (   0.6447264   0.4638355   0.5591301  )
        59           O   tau( 59) = (   0.6447264   0.7730592   0.1793162  )
        60           O   tau( 60) = (   0.6447264   0.7730592   0.5591301  )
        61           O   tau( 61) = (   0.3552736   0.1546118   0.1793157  )
        62           O   tau( 62) = (   0.3552736   0.1546118   0.5591297  )
        63           O   tau( 63) = (   0.3552736   0.4638355   0.1793157  )
        64           O   tau( 64) = (   0.3552736   0.4638355   0.5591297  )
        65           O   tau( 65) = (   0.3552736   0.7730592   0.1793157  )
        66           O   tau( 66) = (   0.3552736   0.7730592   0.5591297  )
        67           O   tau( 67) = (   0.5000000   0.1546118   0.3788864  )
        68           O   tau( 68) = (   0.5000000   0.1546118   0.7587004  )
        69           O   tau( 69) = (   0.5000000   0.4638355   0.3788864  )
        70           O   tau( 70) = (   0.5000000   0.4638355   0.7587004  )
        71           O   tau( 71) = (   0.5000000   0.7730592   0.3788864  )
        72           O   tau( 72) = (   0.5000000   0.7730592   0.7587004  )
        73           O   tau( 73) = (  -0.0000000   0.0000000   0.0009276  )
        74           O   tau( 74) = (  -0.0000000   0.0000000   0.3807415  )
        75           O   tau( 75) = (  -0.0000000   0.3092237   0.0009276  )
        76           O   tau( 76) = (  -0.0000000   0.3092237   0.3807415  )
        77           O   tau( 77) = (  -0.0000000   0.6184474   0.0009276  )
        78           O   tau( 78) = (  -0.0000000   0.6184474   0.3807415  )
        79           O   tau( 79) = (   0.1447264   0.0000000   0.2004987  )
        80           O   tau( 80) = (   0.1447264   0.0000000   0.5803126  )
        81           O   tau( 81) = (   0.1447264   0.3092237   0.2004987  )
        82           O   tau( 82) = (   0.1447264   0.3092237   0.5803126  )
        83           O   tau( 83) = (   0.1447264   0.6184474   0.2004987  )
        84           O   tau( 84) = (   0.1447264   0.6184474   0.5803126  )

     number of k points=    16  Fermi-Dirac smearing, width (Ry)=  0.0019
                       cart. coord. in units 2pi/a_0
        k(    1) = (   0.0000000   0.0000000   0.0000000), wk =   0.1250000
        k(    2) = (   0.0000000   0.0000000  -0.6582170), wk =   0.1250000
        k(    3) = (   0.0000000  -0.5389842   0.0000000), wk =   0.1250000
        k(    4) = (   0.0000000  -0.5389842  -0.6582170), wk =   0.1250000
        k(    5) = (  -0.5000000   0.0000000   0.0000000), wk =   0.1250000
        k(    6) = (  -0.5000000   0.0000000  -0.6582170), wk =   0.1250000
[...]
-0.001 -0.000  0.003 -0.001  0.317
nsum = 111.1988612
 exit write_ns

 ------ SPIN UP ------------

          k = 0.0000 0.0000 0.0000 ( 20075 PWs)   bands (ev):

   -61.7457 -60.1792 -60.0387 -60.0370 -60.0264 -60.0250 -59.8787 -59.8544
   -59.8527 -59.8466 -59.8449 -59.8360 -59.7865 -59.7851 -59.7698 -59.7475
   -59.7406 -59.7386 -59.6906 -59.6891 -59.6830 -59.6744 -59.6723 -59.6351
   -36.0458 -35.4230 -35.4059 -34.1455 -34.1039 -34.0147 -34.0009 -33.9985
   -33.9842 -33.9808 -33.9609 -33.9506 -33.9366 -33.9228 -33.9173 -33.9007
   -33.8791 -33.8782 -33.8608 -33.8060 -33.8039 -33.8010 -33.7983 -33.7904
   -33.7871 -33.7771 -33.7738 -33.7696 -33.7588 -33.7562 -33.7411 -33.7405
   -33.7351 -33.7290 -33.7193 -33.7163 -33.7097 -33.6996 -33.6958 -33.6931
   -33.6911 -33.6863 -33.6838 -33.6774 -33.6743 -33.6663 -33.6618 -33.6498
   -33.6493 -33.6447 -33.6418 -33.6364 -33.6342 -33.6285 -33.6145 -33.6100
   -33.6082 -33.5966 -33.5947 -33.5945 -33.5877 -33.5752 -33.5746 -33.5470
   -33.5467 -33.5411 -33.5249 -33.5205 -33.5141 -33.4996 -33.4805 -33.4688
   -16.4539 -13.8199 -13.3834 -13.2785 -13.2548 -13.1365 -13.1100 -12.9186
   -12.7686 -12.7684 -12.7041 -12.6889 -12.6641 -12.5149 -12.5081 -12.3839
   -12.2806 -12.2433 -12.2236 -12.1750 -12.1546 -12.1361 -12.1077 -12.0748
   -12.0494 -12.0455 -12.0212 -12.0110 -11.9632 -11.9556 -11.9447 -11.9359
   -11.9136 -11.8886 -11.8623 -11.8566 -11.8313 -11.8071 -11.7979 -11.7757
   -11.7610 -11.7440 -11.6598 -11.6410 -11.6193 -11.6028 -11.6001 -11.5939
   -11.5645 -11.5455 -11.5237 -11.5024 -11.4820 -11.4781 -11.4433 -11.4223
   -11.4149 -11.3998 -11.3797 -11.3358  -2.6497  -1.9226  -1.8989  -1.0733
    -1.0197  -0.8034  -0.5995  -0.5969  -0.5025  -0.5009  -0.4012  -0.3981
    -0.3956  -0.3549  -0.1962  -0.1341  -0.1103  -0.0859  -0.0650  -0.0169
    -0.0127   0.0115   0.0210   0.0478   0.0736   0.1059   0.1118   0.1194
     0.1835   0.1866   0.2260   0.2485   0.2948   0.3094   0.3124   0.3265
     0.3597   0.4022   0.4434   0.4946   0.4990   0.5105   0.5748   0.5896
     0.6096   0.6455   0.7007   0.7097   0.7409   0.7433   0.7645   0.7874
     0.8087   0.8229   0.8427   1.0673   1.1028   1.1050   1.1441   1.1648
     1.1670   1.2398   1.3090   1.3571   1.3619   1.3719   1.4180   1.4778
     1.4925   1.5025   1.5026   1.5162   1.5174   1.5726   1.5887   1.6196
     1.6236   1.6408   1.6459   1.6853   1.6903   1.6937   1.7323   1.7634
     1.9229   1.9327   1.9349   1.9617   1.9624   1.9950   2.0153   2.0509
     2.0722   2.0752   2.1045   2.1082   2.1248   2.1292   2.1583   2.1724
     2.2060   2.2589   2.2812   2.2974   2.3073   2.3207   2.3551   2.3593
     2.4013   2.4322   2.4437   2.4902   2.4970   2.5014   2.5327   2.5838
     2.6053   2.6135   2.6211   2.6249   2.6558   2.6652   2.6860   2.7123
     2.7147   2.7508   2.7786   2.8082   2.8524   2.9069   2.9361   2.9599
     2.9714   2.9966   3.0266   3.0780   3.1103   3.1221   3.1545   3.1668
     3.2101   3.2528   3.2782   3.2851   3.3483   3.3499   3.3670   3.3975
     3.4021   3.4203   3.4326   3.4804   3.5098   3.5100   3.5265   3.5486
     3.6183   3.6508   3.6730   3.7062   3.7153   3.7630   3.8265   3.8731
     3.8751   3.8869   3.9286   3.9818   4.0136   4.0948   4.0978   4.1342
     4.1525   4.1947   4.2290   4.2590   4.2878   4.2961   4.3461   4.3818
     5.5811   5.8982   5.9192   6.4633   6.6075   6.6598   6.6610   6.7317
     6.8292   6.8501   6.8808   6.8824   7.0714   7.0812   7.0829   7.1275
     7.1913   7.3990   7.4285   7.4711   7.4984   7.5601   7.5839   7.6301
     7.6458   7.6635   7.6706   7.6723   7.7422   7.7481   7.7842   7.8031
     7.8314   7.8397   7.8620   7.8805   7.8919   7.8922   7.9254   7.9300
     7.9462   7.9630   8.0026   8.0146   8.0425   8.0532   8.0615   8.0691
     8.1067   8.1159   8.1238   8.1616   8.2410   8.2627   8.2711   8.3128
     8.3234   8.3381   8.3463   8.3599   8.3925   8.3940   8.4707   8.5093
     8.5268   8.5275   8.5704

[...]

          k =-0.5000 0.0000 0.0000 ( 20098 PWs)   bands (ev):

[...]

 ------ SPIN DOWN ----------

[...]

          k = 0.0000-0.5390-0.6582 ( 20040 PWs)   bands (ev):

[...]

          k =-0.5000-0.5390-0.6582 ( 20080 PWs)   bands (ev):

   -61.7458 -60.1792 -60.0386 -60.0371 -60.0263 -60.0251 -59.8787 -59.8540
   -59.8532 -59.8462 -59.8452 -59.8360 -59.7864 -59.7851 -59.7698 -59.7475
   -59.7405 -59.7386 -59.6904 -59.6893 -59.6830 -59.6743 -59.6724 -59.6351
   -36.0459 -35.4232 -35.4060 -34.1456 -34.1040 -34.0149 -33.9999 -33.9995
   -33.9828 -33.9824 -33.9590 -33.9526 -33.9337 -33.9297 -33.9113 -33.9031
   -33.8790 -33.8770 -33.8621 -33.8058 -33.8042 -33.8002 -33.7995 -33.7899
   -33.7867 -33.7757 -33.7732 -33.7698 -33.7583 -33.7561 -33.7440 -33.7409
   -33.7405 -33.7191 -33.7160 -33.7149 -33.7129 -33.7082 -33.6991 -33.6921
   -33.6914 -33.6822 -33.6813 -33.6770 -33.6761 -33.6661 -33.6589 -33.6556
   -33.6448 -33.6432 -33.6402 -33.6380 -33.6312 -33.6272 -33.6212 -33.6150
   -33.6118 -33.5974 -33.5959 -33.5936 -33.5787 -33.5734 -33.5689 -33.5606
   -33.5379 -33.5339 -33.5332 -33.5226 -33.5045 -33.5043 -33.4824 -33.4708
   -16.4533 -13.7506 -13.4389 -13.3085 -13.1241 -13.1099 -13.0396 -13.0040
   -12.9855 -12.9625 -12.7843 -12.7712 -12.4433 -12.3710 -12.2893 -12.2786
   -12.2760 -12.2583 -12.1952 -12.1471 -12.1375 -12.1172 -12.1163 -12.1150
   -12.0694 -12.0529 -12.0368 -12.0250 -12.0134 -11.9718 -11.9586 -11.9509
   -11.9332 -11.9133 -11.8939 -11.8892 -11.8266 -11.8017 -11.8014 -11.7898
   -11.7567 -11.7448 -11.6498 -11.6380 -11.6161 -11.6004 -11.5921 -11.5841
   -11.5710 -11.5575 -11.5104 -11.4989 -11.4923 -11.4658 -11.4339 -11.4332
   -11.4285 -11.4120 -11.3867 -11.3683  -2.6189  -1.9176  -1.8934  -0.9456
    -0.9115  -0.8114  -0.5377  -0.5148  -0.4514  -0.3867  -0.3519  -0.3134
    -0.2825  -0.2478  -0.2352  -0.2291  -0.2070  -0.1732  -0.1608  -0.1493
    -0.0782  -0.0321  -0.0196  -0.0122   0.0328   0.0794   0.0988   0.1185
     0.1267   0.1448   0.1916   0.2552   0.2864   0.3177   0.3393   0.4366
     0.5002   0.5125   0.5199   0.6047   0.6965   0.7081   0.7519   0.7650
     0.7874   0.7943   0.8119   0.8411   0.8647   0.8831   0.9098   0.9285
     0.9293   0.9485   0.9637   0.9849   1.0265   1.0398   1.0689   1.0815
     1.1022   1.1188   1.1382   1.1404   1.1720   1.1928   1.1973   1.2215
     1.2324   1.2774   1.3276   1.3341   1.3641   1.4029   1.4210   1.4526
     1.4729   1.4935   1.4970   1.6577   1.6735   1.6829   1.7244   1.7277
     1.7544   1.7927   1.8085   1.8091   1.8250   1.8708   1.8988   1.9262
     1.9460   1.9476   2.0110   2.1196   2.1304   2.2012   2.2542   2.2574
     2.2673   2.2802   2.3068   2.3741   2.4027   2.4213   2.4264   2.4747
     2.4838   2.5043   2.5176   2.5249   2.5733   2.5746   2.5842   2.6432
     2.6439   2.6470   2.7121   2.7152   2.7303   2.7581   2.7606   2.7827
     2.8019   2.8161   2.8206   2.8797   2.8801   2.8916   2.9233   2.9407
     2.9565   2.9682   3.0655   3.0713   3.0896   3.1453   3.1563   3.1859
     3.2005   3.2162   3.2402   3.2720   3.2758   3.3438   3.4726   3.4984
     3.5326   3.5449   3.5863   3.5962   3.6185   3.6297   3.6483   3.6663
     3.6871   3.7070   3.7157   3.7625   3.8067   3.8078   3.8305   3.8541
     3.8666   3.9032   3.9038   3.9283   3.9644   3.9769   3.9846   4.0170
     4.0365   4.0371   4.0491   4.0955   4.1051   4.1149   4.1601   4.1671
     5.6028   5.9737   5.9810   6.5545   6.5946   6.6865   6.7580   6.8053
     6.8268   6.8435   6.8574   6.9030   7.0722   7.0924   7.1300   7.1775
     7.2402   7.4942   7.5128   7.5676   7.6011   7.6666   7.6734   7.6928
     7.7059   7.7242   7.7679   7.7764   7.8044   7.8333   7.8442   7.8567
     7.8690   7.8836   7.8852   7.8943   7.8979   7.9128   7.9220   7.9281
     7.9294   7.9465   7.9625   8.0097   8.0576   8.0583   8.0891   8.0959
     8.1059   8.1094   8.1132   8.1203   8.2092   8.2116   8.2535   8.2632
     8.2729   8.2735   8.3077   8.3140   8.3349   8.3500   8.3600   8.4454
     8.4535   8.4753   8.5147

     the Fermi energy is     4.9945 ev

!    total energy              =   -5390.20714860 Ry
     Harris-Foulkes estimate   =   -5390.20714860 Ry
     estimated scf accuracy    <          8.5E-09 Ry

     The total energy is the sum of the following terms:

     one-electron contribution =   -3527.70003175 Ry
     hartree contribution      =    1992.58808251 Ry
     xc contribution           =    -854.65433644 Ry
     ewald contribution        =   -3007.07106856 Ry
     Hubbard energy            =       6.63020564 Ry
     smearing contrib. (-TS)   =      -0.00000000 Ry

     total magnetization       =    -0.00 Bohr mag/cell
     absolute magnetization    =     0.00 Bohr mag/cell

     convergence has been achieved in  27 iterations
 forces --- starting time for forces:

     Forces acting on atoms (Ry/au):

 forces --- nonlocal contribution:
 forces --- local contribution:

     negative rho (up, down):  0.119E-01 0.119E-01
 forces --- NLCC contribution:
 forces --- entering force_hub:
           1  forces --- i/o, init_us_2, calbec, s_psi:
           1  forces --- dn/dtau:
           2  forces --- i/o, init_us_2, calbec, s_psi:
           2  forces --- dn/dtau:
           3  forces --- i/o, init_us_2, calbec, s_psi:
           3  forces --- dn/dtau:
           4  forces --- i/o, init_us_2, calbec, s_psi:
           4  forces --- dn/dtau:
           5  forces --- i/o, init_us_2, calbec, s_psi:
           5  forces --- dn/dtau:
           6  forces --- i/o, init_us_2, calbec, s_psi:
           6  forces --- dn/dtau:
           7  forces --- i/o, init_us_2, calbec, s_psi:
           7  forces --- dn/dtau:
           8  forces --- i/o, init_us_2, calbec, s_psi:
           8  forces --- dn/dtau:
           9  forces --- i/o, init_us_2, calbec, s_psi:
           9  forces --- dn/dtau:
          10  forces --- i/o, init_us_2, calbec, s_psi:
          10  forces --- dn/dtau:
          11  forces --- i/o, init_us_2, calbec, s_psi:
          11  forces --- dn/dtau:
          12  forces --- i/o, init_us_2, calbec, s_psi:
          12  forces --- dn/dtau:
          13  forces --- i/o, init_us_2, calbec, s_psi:
          13  forces --- dn/dtau:
          14  forces --- i/o, init_us_2, calbec, s_psi:
          14  forces --- dn/dtau:
          15  forces --- i/o, init_us_2, calbec, s_psi:
          15  forces --- dn/dtau:
          16  forces --- i/o, init_us_2, calbec, s_psi:
          16  forces --- dn/dtau:
 forces --- Hubbard contribution:
 forces --- ionic contribution:
 forces --- SCF contribution:
     atom   1 type  2   force =     0.08268230    0.00000000   -0.01904889
     atom   2 type  2   force =     0.01774422    0.00000000   -0.01277792
     atom   3 type  2   force =     0.01594280    0.01151886   -0.01719364
     atom   4 type  2   force =     0.00839850    0.00402818   -0.01335101
     atom   5 type  2   force =     0.01594280   -0.01151886   -0.01719364
     atom   6 type  2   force =     0.00839850   -0.00402818   -0.01335101
     atom   7 type  2   force =    -0.00718219    0.00340709    0.01215693
     atom   8 type  2   force =    -0.01015494    0.00869074    0.01846281
     atom   9 type  2   force =    -0.00479461    0.00000000    0.01316181
     atom  10 type  2   force =    -0.00520580    0.00000000    0.01682834
     atom  11 type  2   force =    -0.00718219   -0.00340709    0.01215693
     atom  12 type  2   force =    -0.01015494   -0.00869074    0.01846281
     atom  13 type  2   force =    -0.00657635    0.00781934    0.00275881
     atom  14 type  2   force =    -0.03336355    0.02901522    0.02000391
     atom  15 type  2   force =    -0.00186771    0.00000000    0.01152203
     atom  16 type  2   force =    -0.00819160    0.00000000    0.01667825
     atom  17 type  2   force =    -0.00657635   -0.00781934    0.00275881
     atom  18 type  2   force =    -0.03336355   -0.02901522    0.02000391
     atom  19 type  2   force =     0.00669355    0.00000000    0.29241603
     atom  20 type  2   force =    -0.00401635    0.00000000   -0.02326936
     atom  21 type  2   force =     0.00907883    0.04308774   -0.01492609
     atom  22 type  2   force =    -0.00027303    0.00819620   -0.01157360
     atom  23 type  2   force =     0.00907883   -0.04308774   -0.01492609
     atom  24 type  2   force =    -0.00027303   -0.00819620   -0.01157360
     atom  25 type  1   force =    -0.01208219   -0.01631157    0.00032284
     atom  26 type  1   force =    -0.00545229   -0.00466183    0.00279868
     atom  27 type  1   force =    -0.00779039    0.00000000    0.00019823
     atom  28 type  1   force =    -0.00525936    0.00000000    0.00188915
     atom  29 type  1   force =    -0.01208219    0.01631157    0.00032284
     atom  30 type  1   force =    -0.00545229    0.00466183    0.00279868
     atom  31 type  1   force =     0.00159559    0.00000000   -0.00304191
     atom  32 type  1   force =    -0.00580412    0.00000000   -0.00717266
     atom  33 type  1   force =     0.00361414   -0.00290513   -0.00222645
     atom  34 type  1   force =     0.00295664   -0.00646975   -0.00198679
     atom  35 type  1   force =     0.00361414    0.00290513   -0.00222645
     atom  36 type  1   force =     0.00295664    0.00646975   -0.00198679
     atom  37 type  1   force =     0.00159972    0.00000000   -0.00067280
     atom  38 type  1   force =     0.03621764    0.00000000   -0.01693034
     atom  39 type  1   force =    -0.00285948   -0.00532015   -0.00189824
     atom  40 type  1   force =     0.00199943   -0.01578134   -0.00178645
     atom  41 type  1   force =    -0.00285948    0.00532015   -0.00189824
     atom  42 type  1   force =     0.00199943    0.01578134   -0.00178645
     atom  43 type  1   force =     0.01922314   -0.07668456   -0.01231154
     atom  44 type  1   force =     0.00553641   -0.00986823    0.00610654
     atom  45 type  1   force =     0.01001722    0.00000000   -0.00302627
     atom  46 type  1   force =     0.00528009    0.00000000    0.00179297
     atom  47 type  1   force =     0.01922314    0.07668456   -0.01231154
     atom  48 type  1   force =     0.00553641    0.00986823    0.00610654
     atom  49 type  3   force =     0.00857461    0.00000000   -0.22359534
     atom  50 type  1   force =     0.00031011    0.00000000   -0.01280204
     atom  51 type  1   force =    -0.00002411   -0.00321523    0.00569477
     atom  52 type  1   force =    -0.00058297   -0.00168065   -0.00405081
     atom  53 type  1   force =    -0.00002411    0.00321523    0.00569477
     atom  54 type  1   force =    -0.00058297    0.00168065   -0.00405081
     atom  55 type  1   force =     0.00366682   -0.00271493    0.00904798
     atom  56 type  1   force =     0.00223165   -0.00197096   -0.00847310
     atom  57 type  1   force =     0.00092037    0.00000000    0.00184511
     atom  58 type  1   force =     0.00060358    0.00000000   -0.00547965
     atom  59 type  1   force =     0.00366682    0.00271493    0.00904798
     atom  60 type  1   force =     0.00223165    0.00197096   -0.00847310
[...]
     atom  70 type  1   force =     0.00443252    0.00000000   -0.00824330
     atom  71 type  1   force =     0.01959189    0.00336030   -0.00612150
     atom  72 type  1   force =     0.00849388    0.00068863   -0.00813320
     atom  73 type  1   force =    -0.01353806    0.00000000    0.01466340
     atom  74 type  1   force =    -0.11640066    0.00000000   -0.00714922
     atom  75 type  1   force =    -0.00598159   -0.00112175    0.00915958
     atom  76 type  1   force =    -0.01776144   -0.00424137    0.00760264
     atom  77 type  1   force =    -0.00598159    0.00112175    0.00915958
     atom  78 type  1   force =    -0.01776144    0.00424137    0.00760264
     atom  79 type  1   force =    -0.00515557    0.00000000    0.00899709
     atom  80 type  1   force =    -0.00245658    0.00000000   -0.00465701
     atom  81 type  1   force =    -0.00103000   -0.00097776    0.00482800
     atom  82 type  1   force =    -0.00044275   -0.00059682   -0.00119308
     atom  83 type  1   force =    -0.00103000    0.00097776    0.00482800
     atom  84 type  1   force =    -0.00044275    0.00059682   -0.00119308

     Total force =     0.438149     Total SCF correction =     0.000398

     entering subroutine stress ...

     negative rho (up, down):  0.119E-01 0.119E-01
          total   stress  (Ry/bohr**3)                   (kbar)     P=   21.69
   0.00018725   0.00000000  -0.00003401         27.55      0.00     -5.00
   0.00000000   0.00015255   0.00000000          0.00     22.44      0.00
  -0.00003401   0.00000000   0.00010247         -5.00      0.00     15.07

     Writing output data file v2o5.O49-FCH.save

     General routines

     Parallel routines

   This run was terminated on:  15:32: 3   6Sep2018

   JOB DONE.