     Program PWSCF v.4.3        starts on 28Aug2018 at 22:55: 1

     Current dimensions of program PWSCF are:
     Max number of different atomic species (ntypx) = **
     Max number of k-points (npk) =  40000
     Max angular momentum in pseudopotentials (lmaxx) =  3
     Waiting for input...

     Subspace diagonalization in iterative solution of the eigenvalue problem:

     Found symmetry operation: I + (  0.0000  0.0000  0.3333)
     This is a supercell, fractional translation are disabled

   Stick Mesh
   nst =  6657,  nstw =   749, nsts =  2669
               n.st   n.stw   n.sts    n.g    n.gw   n.gs
   min         104      11      41    6328     237    1583
   max         105      12      42    6332     242    1626
       6657     749    2669  405123   15331  102397

     bravais-lattice index     =           14
     lattice parameter (a_0)   =      16.7090  a.u.
     unit-cell volume          =    4616.9515 (a.u.)^3
     number of atoms/cell      =           72
     number of atomic types    =            2
     number of electrons       =       624.00
     number of Kohn-Sham states=          374
     kinetic-energy cutoff     =      30.0000  Ry
     charge density cutoff     =     300.0000  Ry
     convergence threshold     =      1.0E-08
     mixing beta               =       0.3000
     number of iterations used =            8  local-TF  mixing
     Exchange-correlation      =  SLA  PW   PBE  PBE (1434)
     EXX-fraction              =        0.00

     celldm(1)=  16.708958  celldm(2)=   1.000000  celldm(3)=   0.989708
     celldm(4)=   0.000000  celldm(5)=   0.000000  celldm(6)=   0.000000

     crystal axes: (cart. coord. in units of a_0)
               a(1) = (   1.000000   0.000000   0.000000 )
               a(2) = (   0.000000   1.000000   0.000000 )
               a(3) = (   0.000000   0.000000   0.989708 )

     reciprocal axes: (cart. coord. in units 2 pi/a_0)
               b(1) = (  1.000000  0.000000  0.000000 )
               b(2) = (  0.000000  1.000000  0.000000 )
               b(3) = (  0.000000  0.000000  1.010399 )

     PseudoPot. # 1 for Cr read from file Cr.pbe-van-yufengl.UPF
     MD5 check sum: b3ad88ce73ccf30ec9a6cdad427f0885
     Pseudo is Ultrasoft, Zval = 14.0
     Generated by new atomic code, or converted to UPF format
     Using radial grid of  857 points,  6 beta functions with:
                l(1) =   0
                l(2) =   0
                l(3) =   1
                l(4) =   1
                l(5) =   2
                l(6) =   2
     Q(r) pseudized with  6 coefficients,  rinner =    1.000   1.000   1.000
                                                       1.000   1.000

     PseudoPot. # 2 for O  read from file O.pbe-van_bm.UPF
     MD5 check sum: ca2828d9fb1f294809e918903b7648d1
     Pseudo is Ultrasoft, Zval =  6.0
     Generated by new atomic code, or converted to UPF format
     Using radial grid of  737 points,  4 beta functions with:
                l(1) =   0
                l(2) =   0
                l(3) =   1
                l(4) =   1
     Q(r) pseudized with  8 coefficients,  rinner =    0.800   0.800   0.800

     atomic species   valence    mass     pseudopotential
        Cr            14.00    52.00000     Cr( 1.00)
        O              6.00    15.99900     O ( 1.00)

     Starting magnetic structure
     atomic species   magnetization
        Cr           1.000
        O            0.000

     LDA+U calculation, Hubbard_lmax = 2
     atomic species  L   Hubbard U  Hubbard alpha
        Cr           2    0.257245    0.000000

      8 Sym.Ops. (with inversion)

   Cartesian axes

     site n.     atom                  positions (a_0 units)
         1           Cr  tau(  1) = (   0.0000000   0.0000000   0.0000000  )
         2           Cr  tau(  2) = (   0.0000000   0.0000000   0.3299027  )
         3           Cr  tau(  3) = (   0.0000000   0.0000000   0.6598055  )
         4           Cr  tau(  4) = (   0.0000000   0.5000000   0.0000000  )
         5           Cr  tau(  5) = (   0.0000000   0.5000000   0.3299027  )
         6           Cr  tau(  6) = (   0.0000000   0.5000000   0.6598055  )
         7           Cr  tau(  7) = (   0.5000000   0.0000000   0.0000000  )
         8           Cr  tau(  8) = (   0.5000000   0.0000000   0.3299027  )
         9           Cr  tau(  9) = (   0.5000000   0.0000000   0.6598055  )
        10           Cr  tau( 10) = (   0.5000000   0.5000000   0.0000000  )
        11           Cr  tau( 11) = (   0.5000000   0.5000000   0.3299027  )
        12           Cr  tau( 12) = (   0.5000000   0.5000000   0.6598055  )
        13           Cr  tau( 13) = (   0.2500000   0.2500000   0.1649514  )
        14           Cr  tau( 14) = (   0.2500000   0.2500000   0.4948541  )
        15           Cr  tau( 15) = (   0.2500000   0.2500000   0.8247569  )
        16           Cr  tau( 16) = (   0.2500000   0.7500000   0.1649514  )
        17           Cr  tau( 17) = (   0.2500000   0.7500000   0.4948541  )
        18           Cr  tau( 18) = (   0.2500000   0.7500000   0.8247569  )
        19           Cr  tau( 19) = (   0.7500000   0.2500000   0.1649514  )
        20           Cr  tau( 20) = (   0.7500000   0.2500000   0.4948541  )
        21           Cr  tau( 21) = (   0.7500000   0.2500000   0.8247569  )
        22           Cr  tau( 22) = (   0.7500000   0.7500000   0.1649514  )
        23           Cr  tau( 23) = (   0.7500000   0.7500000   0.4948541  )
        24           Cr  tau( 24) = (   0.7500000   0.7500000   0.8247569  )
        25           O   tau( 25) = (   0.1505000   0.1505000   0.0000000  )
        26           O   tau( 26) = (   0.1505000   0.1505000   0.3299027  )
        27           O   tau( 27) = (   0.1505000   0.1505000   0.6598055  )
        28           O   tau( 28) = (   0.1505000   0.6505000   0.0000000  )
        29           O   tau( 29) = (   0.1505000   0.6505000   0.3299027  )
        30           O   tau( 30) = (   0.1505000   0.6505000   0.6598055  )
        31           O   tau( 31) = (   0.6505000   0.1505000   0.0000000  )
        32           O   tau( 32) = (   0.6505000   0.1505000   0.3299027  )
        33           O   tau( 33) = (   0.6505000   0.1505000   0.6598055  )
        34           O   tau( 34) = (   0.6505000   0.6505000   0.0000000  )
        35           O   tau( 35) = (   0.6505000   0.6505000   0.3299027  )
        36           O   tau( 36) = (   0.6505000   0.6505000   0.6598055  )
        37           O   tau( 37) = (   0.3495000   0.3495000   0.0000000  )
        38           O   tau( 38) = (   0.3495000   0.3495000   0.3299027  )
        39           O   tau( 39) = (   0.3495000   0.3495000   0.6598055  )
        40           O   tau( 40) = (   0.3495000   0.8495000   0.0000000  )
        41           O   tau( 41) = (   0.3495000   0.8495000   0.3299027  )
        42           O   tau( 42) = (   0.3495000   0.8495000   0.6598055  )
        43           O   tau( 43) = (   0.8495000   0.3495000   0.0000000  )
        44           O   tau( 44) = (   0.8495000   0.3495000   0.3299027  )
        45           O   tau( 45) = (   0.8495000   0.3495000   0.6598055  )
        46           O   tau( 46) = (   0.8495000   0.8495000   0.0000000  )
        47           O   tau( 47) = (   0.8495000   0.8495000   0.3299027  )
        48           O   tau( 48) = (   0.8495000   0.8495000   0.6598055  )
        49           O   tau( 49) = (   0.0995000   0.4005000   0.1649514  )
        50           O   tau( 50) = (   0.0995000   0.4005000   0.4948541  )
        51           O   tau( 51) = (   0.0995000   0.4005000   0.8247569  )
        52           O   tau( 52) = (   0.0995000   0.9005000   0.1649514  )
        53           O   tau( 53) = (   0.0995000   0.9005000   0.4948541  )
        54           O   tau( 54) = (   0.0995000   0.9005000   0.8247569  )
        55           O   tau( 55) = (   0.5995000   0.4005000   0.1649514  )
        56           O   tau( 56) = (   0.5995000   0.4005000   0.4948541  )
        57           O   tau( 57) = (   0.5995000   0.4005000   0.8247569  )
        58           O   tau( 58) = (   0.5995000   0.9005000   0.1649514  )
        59           O   tau( 59) = (   0.5995000   0.9005000   0.4948541  )
        60           O   tau( 60) = (   0.5995000   0.9005000   0.8247569  )
        61           O   tau( 61) = (   0.4005000   0.0995000   0.1649514  )
        62           O   tau( 62) = (   0.4005000   0.0995000   0.4948541  )
        63           O   tau( 63) = (   0.4005000   0.0995000   0.8247569  )
        64           O   tau( 64) = (   0.4005000   0.5995000   0.1649514  )
        65           O   tau( 65) = (   0.4005000   0.5995000   0.4948541  )
        66           O   tau( 66) = (   0.4005000   0.5995000   0.8247569  )
        67           O   tau( 67) = (   0.9005000   0.0995000   0.1649514  )
        68           O   tau( 68) = (   0.9005000   0.0995000   0.4948541  )
        69           O   tau( 69) = (   0.9005000   0.0995000   0.8247569  )
        70           O   tau( 70) = (   0.9005000   0.5995000   0.1649514  )
        71           O   tau( 71) = (   0.9005000   0.5995000   0.4948541  )
        72           O   tau( 72) = (   0.9005000   0.5995000   0.8247569  )

     number of k points=    12  Fermi-Dirac smearing, width (Ry)=  0.0019
                       cart. coord. in units 2pi/a_0
        k(    1) = (   0.0000000   0.0000000   0.0000000), wk =   0.1250000
        k(    2) = (   0.0000000   0.0000000  -0.5051994), wk =   0.1250000
        k(    3) = (   0.0000000  -0.5000000   0.0000000), wk =   0.2500000
        k(    4) = (   0.0000000  -0.5000000  -0.5051994), wk =   0.2500000
        k(    5) = (  -0.5000000  -0.5000000   0.0000000), wk =   0.1250000
        k(    6) = (  -0.5000000  -0.5000000  -0.5051994), wk =   0.1250000
        k(    7) = (   0.0000000   0.0000000   0.0000000), wk =   0.1250000
        k(    8) = (   0.0000000   0.0000000  -0.5051994), wk =   0.1250000
        k(    9) = (   0.0000000  -0.5000000   0.0000000), wk =   0.2500000
        k(   10) = (   0.0000000  -0.5000000  -0.5051994), wk =   0.2500000
        k(   11) = (  -0.5000000  -0.5000000   0.0000000), wk =   0.1250000
        k(   12) = (  -0.5000000  -0.5000000  -0.5051994), wk =   0.1250000

     G cutoff = 2121.5842  ( 405123 G-vectors)     FFT grid: ( 96, 96, 96)
     G cutoff =  848.6337  ( 102397 G-vectors)  smooth grid: ( 60, 60, 60)

     Largest allocated arrays     est. size (Mb)     dimensions
     Largest temporary arrays     est. size (Mb)     dimensions

     Initial potential from superposition of free atoms

     starting charge  623.98467, renormalised to  624.00000

     Parameters of the lda+U calculation:
     Number of iteration with fixed ns =  0
     Starting ns and Hubbard U :
 enter write_ns
U( 1) =  3.5000      U( 2) =  0.0000
alpha( 1) =  0.0000      alpha( 2) =  0.0000
atom    1   Tr[ns(na)]=   5.0000000
atom    1   spin  1
eigenvalues:  1.0000000 1.0000000 1.0000000 1.0000000 1.0000000
 eigenvectors
 1   1.0000000  0.0000000  0.0000000  0.0000000  0.0000000
 2   0.0000000  1.0000000  0.0000000  0.0000000  0.0000000
 3   0.0000000  0.0000000  1.0000000  0.0000000  0.0000000
[...]
-0.000  0.119  0.287  0.000  0.000
-0.000  0.000  0.000  0.172 -0.000
 0.134  0.000  0.000 -0.000  0.329
atom   24   Tr[ns(na)]=   5.0997107
atom   24   spin  1
eigenvalues:  0.5542472 0.5895531 0.7675203 0.9055774 0.9883540
 eigenvectors
 1   0.0000000 -0.7071068 -0.7071068  0.0000000  0.0000000
 2   0.5424756  0.0000000  0.0000000  0.0000000  0.8400715
 3  -0.0000000 -0.0000000  0.0000000  1.0000000  0.0000000
 4  -0.0000000 -0.7071068  0.7071068 -0.0000000  0.0000000
 5  -0.8400715 -0.0000000 -0.0000000 -0.0000000  0.5424756
 occupations
 0.871  0.000  0.000  0.000 -0.182
 0.000  0.730 -0.176  0.000 -0.000
 0.000 -0.176  0.730 -0.000 -0.000
 0.000  0.000 -0.000  0.768 -0.000
-0.182 -0.000 -0.000 -0.000  0.707
atom   24   spin  2
eigenvalues:  0.1297386 0.1676304 0.1715779 0.4063774 0.4191345
 eigenvectors
 1  -0.8306757 -0.0000000 -0.0000000  0.0000000  0.5567566
 2  -0.0000000  0.7071068 -0.7071068  0.0000001  0.0000000
 3   0.0000000 -0.0000001  0.0000001  1.0000000 -0.0000000
 4   0.0000000 -0.7071068 -0.7071068 -0.0000000  0.0000000
 5   0.5567566  0.0000000  0.0000000 -0.0000000  0.8306757
 occupations
 0.219 -0.000 -0.000 -0.000  0.134
-0.000  0.287  0.119 -0.000  0.000
-0.000  0.119  0.287  0.000  0.000
-0.000 -0.000  0.000  0.172 -0.000
 0.134  0.000  0.000 -0.000  0.329
nsum = 122.3930775
 exit write_ns

 ------ SPIN UP ------------

          k = 0.0000 0.0000 0.0000 ( 12877 PWs)   bands (ev):

   -62.7316 -62.7316 -62.7280 -62.7279 -62.7279 -62.7279 -62.7279 -62.7271
   -62.7184 -62.7184 -62.7166 -62.7166 -62.7166 -62.7166 -62.7166 -62.7166
   -62.7166 -62.7166 -62.7158 -62.7158 -62.7158 -62.7158 -62.7137 -62.7137
   -34.1367 -34.1367 -34.1336 -34.1336 -34.1261 -34.1261 -34.1261 -34.1261
   -34.1204 -34.1204 -34.1204 -34.1204 -34.1204 -34.1204 -34.1204 -34.1204
   -34.1202 -34.1202 -34.1202 -34.1201 -34.1186 -34.1186 -34.1186 -34.1186
   -34.0636 -34.0636 -34.0636 -34.0636 -34.0544 -34.0544 -34.0532 -34.0532
   -34.0526 -34.0526 -34.0514 -34.0514 -34.0514 -34.0514 -34.0514 -34.0514
   -34.0514 -34.0514 -34.0483 -34.0483 -34.0483 -34.0483 -34.0433 -34.0433
   -34.0412 -34.0412 -34.0412 -34.0412 -34.0409 -34.0409 -34.0409 -34.0409
   -34.0360 -34.0360 -34.0360 -34.0360 -34.0360 -34.0360 -34.0360 -34.0360
   -33.9346 -33.9275 -33.9275 -33.9275 -33.9275 -33.9274 -33.9274 -33.9203
    -8.9047  -8.0514  -8.0514  -8.0514  -8.0514  -8.0374  -8.0374  -8.0022
    -8.0022  -7.5002  -7.5002  -7.5002  -7.5002  -7.5002  -7.5002  -7.5002
    -7.5002  -7.4076  -7.4076  -7.4076  -7.4076  -7.2667  -7.0980  -7.0980
    -7.0887  -7.0887  -7.0887  -7.0887  -7.0074  -7.0074  -7.0074  -7.0074
    -7.0074  -7.0074  -7.0074  -7.0074  -6.9280  -6.9280  -6.9280  -6.9280
    -6.9224  -6.9224  -6.8957  -6.8957  -6.8957  -6.8957  -6.7197  -6.7197
     2.4756   2.9736   2.9736   3.3726   3.5550   3.5550   3.5550   3.5550
     3.7036   3.8219   3.8219   3.8219   3.8219   3.8219   3.8219   3.8219
     3.8219   3.9014   3.9014   3.9014   3.9014   3.9228   3.9228   4.0867
     4.0867   4.0867   4.0867   4.3992   4.3992   4.7010   4.7010   4.7010
     4.7010   4.9204   4.9204   4.9204   4.9204   4.9204   4.9204   4.9204
     4.9204   5.0464   5.0464   5.2031   5.2031   5.3027   5.3027   5.3855
     5.3855   5.5366   5.5366   5.5366   5.5366   5.5682   5.5682   5.5682
     5.5682   5.5682   5.5682   5.5682   5.5682   5.6511   5.6511   5.6511
     5.6511   5.6561   5.6561   5.6561   5.6561   5.7965   5.7965   6.0945
     6.0945   6.0945   6.0945   6.4625   6.4625   6.4625   6.4625   6.4625
     6.4625   6.4625   6.4625   6.5402   6.5402   6.9378   6.9378   6.9378
     6.9378   6.9483   6.9483   6.9483   6.9483   6.9601   6.9601   6.9601
     6.9601   6.9946   6.9946   7.1035   7.1035   7.1276   7.1276   7.1276
     7.1276   7.1276   7.1276   7.1276   7.1276   7.2050   7.2050   7.2050
     7.2050   7.4993   7.7879   7.8662   7.8662   8.0232   8.0232   8.0625
     8.0625   8.0625   8.0625   8.0625   8.0625   8.0625   8.0625   8.0679
     8.0679   8.0679   8.0679   8.3939   8.3939   8.4297   8.4298   8.4449
     8.4449   8.4933   8.5437   8.7068   8.7068   8.8480   8.8480   8.8620
     8.8620   8.8620   8.8620   8.8983   8.8983   8.8983   8.8983   8.9375
     8.9375   8.9375   8.9375   9.2417   9.2417   9.3436   9.4268   9.4268
     9.4268   9.4268   9.4268   9.4268   9.4268   9.4268   9.5001   9.5001
     9.5001   9.5001   9.7277   9.7277   9.7277   9.7277   9.7277   9.7277
     9.7277   9.7277   9.8437   9.8437   9.8568   9.8568   9.8568   9.8568
     9.9986   9.9986  10.0075  10.0075  10.0075  10.0075  10.4687  10.7072
    10.7072  10.7072  10.7072  10.7214  10.7214  10.7214  10.7214  10.9338
    10.9338  10.9338  10.9338  11.0147  11.0147  11.1411  11.1411  11.1411
    11.1411  11.1411  11.1411  11.1411  11.1411  11.4701  11.4701  11.6023
    11.6739  12.4135  12.4135  12.4135  12.4135  12.4135  12.4135  12.4135
    12.4135  12.6843  12.6843  13.3788  13.3788  13.5482

[...]

          k =-0.5000-0.5000 0.0000 ( 12728 PWs)   bands (ev):

[...]

 ------ SPIN DOWN ----------

[...]

          k = 0.0000-0.5000-0.5052 ( 12788 PWs)   bands (ev):

[...]

          k =-0.5000-0.5000-0.5052 ( 12768 PWs)   bands (ev):

   -59.8433 -59.8432 -59.8432 -59.8432 -59.8432 -59.8432 -59.8432 -59.8432
   -59.8395 -59.8395 -59.8395 -59.8395 -59.8395 -59.8395 -59.8395 -59.8395
   -59.8288 -59.8288 -59.8288 -59.8288 -59.8281 -59.8281 -59.8281 -59.8281
   -31.4132 -31.4132 -31.4132 -31.4132 -31.4132 -31.4132 -31.4132 -31.4132
   -31.4099 -31.4099 -31.4099 -31.4098 -31.4098 -31.4098 -31.4098 -31.4098
   -31.4015 -31.4015 -31.4015 -31.4015 -31.3993 -31.3993 -31.3993 -31.3993
   -31.1782 -31.1782 -31.1782 -31.1782 -31.1782 -31.1782 -31.1782 -31.1782
   -31.1741 -31.1741 -31.1741 -31.1741 -31.1741 -31.1741 -31.1741 -31.1741
   -31.1525 -31.1525 -31.1525 -31.1525 -31.1503 -31.1503 -31.1503 -31.1503
   -31.0756 -31.0756 -31.0755 -31.0755 -31.0749 -31.0749 -31.0749 -31.0749
   -30.9357 -30.9357 -30.9357 -30.9357 -30.9357 -30.9357 -30.9357 -30.9356
   -30.9285 -30.9285 -30.9285 -30.9285 -30.9285 -30.9285 -30.9285 -30.9285
    -8.5653  -8.5653  -8.5653  -8.5653  -8.5653  -8.5653  -8.5653  -8.5653
    -7.7003  -7.7003  -7.7003  -7.7003  -7.7003  -7.7003  -7.7003  -7.7003
    -7.6244  -7.6244  -7.6244  -7.6244  -7.6069  -7.6069  -7.6069  -7.6069
    -7.3619  -7.3619  -7.3619  -7.3619  -7.3482  -7.3482  -7.3482  -7.3482
    -7.2794  -7.2794  -7.2794  -7.2794  -7.2794  -7.2794  -7.2794  -7.2794
    -7.2699  -7.2699  -7.2698  -7.2698  -7.2698  -7.2698  -7.2698  -7.2698
     4.3831   4.3831   4.3831   4.3831   4.3831   4.3831   4.3831   4.3831
     4.7276   4.7276   4.7276   4.7276   5.0879   5.0879   5.0879   5.0879
     5.1629   5.1629   5.1629   5.1629   5.1869   5.1869   5.1869   5.1869
     5.1869   5.1869   5.1869   5.1869   5.3079   5.3079   5.3079   5.3079
     5.3079   5.3079   5.3079   5.3079   5.3458   5.3458   5.3458   5.3458
     5.7625   5.7625   5.7625   5.7625   5.7625   5.7625   5.7625   5.7625
     5.8021   5.8021   5.8021   5.8021   6.4218   6.4218   6.4218   6.4218
     6.4218   6.4218   6.4218   6.4218   6.5318   6.5318   6.5318   6.5318
     6.5318   6.5318   6.5318   6.5318   6.7362   6.7362   6.7362   6.7362
     6.8425   6.8425   6.8425   6.8425   6.9280   6.9280   6.9280   6.9280
     7.0584   7.0584   7.0584   7.0584   7.0584   7.0584   7.0584   7.0584
     7.3966   7.3966   7.3966   7.3966   7.3966   7.3966   7.3966   7.3966
     7.4567   7.4567   7.4567   7.4567   7.4567   7.4567   7.4567   7.4567
     7.7591   7.7591   7.7591   7.7591   8.1948   8.1948   8.1948   8.1948
     8.2880   8.2880   8.2880   8.2880   8.4103   8.4103   8.4103   8.4103
     8.5183   8.5183   8.5183   8.5183   8.5183   8.5183   8.5183   8.5183
     8.5475   8.5475   8.5475   8.5475   8.5475   8.5475   8.5475   8.5475
     8.9506   8.9506   8.9506   8.9506   8.9506   8.9506   8.9506   8.9506
    13.3619  13.3619  13.3619  13.3619  13.5153  13.5153  13.5153  13.5153
    13.5153  13.5153  13.5153  13.5153  13.6318  13.6318  13.6318  13.6318
    13.6318  13.6318  13.6318  13.6318  13.8167  13.8167  13.8167  13.8167
    14.1069  14.1069  14.1069  14.1069  14.1069  14.1069  14.1069  14.1069
    14.1374  14.1374  14.1374  14.1374  14.1597  14.1597  14.1597  14.1597
    14.1597  14.1597  14.1597  14.1597  14.3781  14.3781  14.3781  14.3781
    14.4156  14.4156  14.4156  14.4156  14.4156  14.4156  14.4156  14.4156
    14.6415  14.6415  14.6415  14.6415  14.6415  14.6415  14.6415  14.6415
    14.6665  14.6665  14.6665  14.6665  14.8207  14.8207  14.8207  14.8207
    14.8651  14.8651  14.8651  14.8651  15.0450  15.0450  15.0450  15.0450
    15.0450  15.0450  15.0450  15.0450  15.4712  15.4712

     the Fermi energy is    10.3957 ev

!    total energy              =   -5707.55009036 Ry
     Harris-Foulkes estimate   =   -5707.55008405 Ry
     estimated scf accuracy    <          2.5E-09 Ry

     The total energy is the sum of the following terms:

     one-electron contribution =   -2456.23194097 Ry
     hartree contribution      =    1540.20360403 Ry
     xc contribution           =    -816.95412441 Ry
     ewald contribution        =   -3979.63622410 Ry
     Hubbard energy            =       5.07419049 Ry
     smearing contrib. (-TS)   =      -0.00559540 Ry

     total magnetization       =    48.00 Bohr mag/cell
     absolute magnetization    =    76.68 Bohr mag/cell

     convergence has been achieved in  16 iterations
 forces --- starting time for forces:

     Forces acting on atoms (Ry/au):

 forces --- nonlocal contribution:
 forces --- local contribution:
 forces --- NLCC contribution:
 forces --- entering force_hub:
           1  forces --- i/o, init_us_2, calbec, s_psi:
           1  forces --- dn/dtau:
           2  forces --- i/o, init_us_2, calbec, s_psi:
           2  forces --- dn/dtau:
           3  forces --- i/o, init_us_2, calbec, s_psi:
           3  forces --- dn/dtau:
           4  forces --- i/o, init_us_2, calbec, s_psi:
           4  forces --- dn/dtau:
           5  forces --- i/o, init_us_2, calbec, s_psi:
           5  forces --- dn/dtau:
           6  forces --- i/o, init_us_2, calbec, s_psi:
           6  forces --- dn/dtau:
           7  forces --- i/o, init_us_2, calbec, s_psi:
           7  forces --- dn/dtau:
           8  forces --- i/o, init_us_2, calbec, s_psi:
           8  forces --- dn/dtau:
           9  forces --- i/o, init_us_2, calbec, s_psi:
           9  forces --- dn/dtau:
          10  forces --- i/o, init_us_2, calbec, s_psi:
          10  forces --- dn/dtau:
          11  forces --- i/o, init_us_2, calbec, s_psi:
          11  forces --- dn/dtau:
          12  forces --- i/o, init_us_2, calbec, s_psi:
          12  forces --- dn/dtau:
 forces --- Hubbard contribution:
 forces --- ionic contribution:
 forces --- SCF contribution:
     atom   1 type  1   force =     0.00000000    0.00000000    0.00000000
     atom   2 type  1   force =     0.00000000    0.00000000    0.00000199
     atom   3 type  1   force =     0.00000000    0.00000000   -0.00000199
     atom   4 type  1   force =     0.00000000    0.00000000    0.00000000
     atom   5 type  1   force =     0.00000000    0.00000000    0.00000200
     atom   6 type  1   force =     0.00000000    0.00000000   -0.00000200
     atom   7 type  1   force =     0.00000000    0.00000000    0.00000000
     atom   8 type  1   force =     0.00000000    0.00000000    0.00000200
     atom   9 type  1   force =     0.00000000    0.00000000   -0.00000200
     atom  10 type  1   force =     0.00000000    0.00000000    0.00000000
     atom  11 type  1   force =     0.00000000    0.00000000    0.00000197
     atom  12 type  1   force =     0.00000000    0.00000000   -0.00000197
     atom  13 type  1   force =     0.00000069    0.00000069    0.00000192
     atom  14 type  1   force =     0.00000069    0.00000069    0.00000000
     atom  15 type  1   force =     0.00000069    0.00000069   -0.00000192
     atom  16 type  1   force =     0.00000070   -0.00000070    0.00000189
     atom  17 type  1   force =     0.00000069   -0.00000069    0.00000000
     atom  18 type  1   force =     0.00000070   -0.00000070   -0.00000189
     atom  19 type  1   force =    -0.00000070    0.00000070    0.00000189
     atom  20 type  1   force =    -0.00000069    0.00000069    0.00000000
     atom  21 type  1   force =    -0.00000070    0.00000070   -0.00000189
     atom  22 type  1   force =    -0.00000069   -0.00000069    0.00000192
     atom  23 type  1   force =    -0.00000069   -0.00000069    0.00000000
     atom  24 type  1   force =    -0.00000069   -0.00000069   -0.00000192
     atom  25 type  2   force =     0.00408318    0.00408318    0.00000000
     atom  26 type  2   force =     0.00408332    0.00408332    0.00000060
     atom  27 type  2   force =     0.00408332    0.00408332   -0.00000060
     atom  28 type  2   force =     0.00408317    0.00408279    0.00000000
     atom  29 type  2   force =     0.00408329    0.00408291    0.00000060
     atom  30 type  2   force =     0.00408329    0.00408291   -0.00000060
     atom  31 type  2   force =     0.00408279    0.00408317    0.00000000
     atom  32 type  2   force =     0.00408291    0.00408329    0.00000060
     atom  33 type  2   force =     0.00408291    0.00408329   -0.00000060
     atom  34 type  2   force =     0.00408280    0.00408280    0.00000000
     atom  35 type  2   force =     0.00408295    0.00408295    0.00000060
     atom  36 type  2   force =     0.00408295    0.00408295   -0.00000060
     atom  37 type  2   force =    -0.00408280   -0.00408280    0.00000000
     atom  38 type  2   force =    -0.00408295   -0.00408295    0.00000060
     atom  39 type  2   force =    -0.00408295   -0.00408295   -0.00000060
     atom  40 type  2   force =    -0.00408279   -0.00408317    0.00000000
     atom  41 type  2   force =    -0.00408291   -0.00408329    0.00000060
     atom  42 type  2   force =    -0.00408291   -0.00408329   -0.00000060
     atom  43 type  2   force =    -0.00408317   -0.00408279    0.00000000
     atom  44 type  2   force =    -0.00408329   -0.00408291    0.00000060
     atom  45 type  2   force =    -0.00408329   -0.00408291   -0.00000060
     atom  46 type  2   force =    -0.00408318   -0.00408318    0.00000000
     atom  47 type  2   force =    -0.00408332   -0.00408332    0.00000060
     atom  48 type  2   force =    -0.00408332   -0.00408332   -0.00000060
     atom  49 type  2   force =    -0.00408231    0.00408258    0.00000064
     atom  50 type  2   force =    -0.00408252    0.00408277    0.00000000
     atom  51 type  2   force =    -0.00408231    0.00408258   -0.00000064
     atom  52 type  2   force =    -0.00408225    0.00408225    0.00000063
     atom  53 type  2   force =    -0.00408244    0.00408244    0.00000000
     atom  54 type  2   force =    -0.00408225    0.00408225   -0.00000063
     atom  55 type  2   force =    -0.00408261    0.00408261    0.00000063
     atom  56 type  2   force =    -0.00408280    0.00408280    0.00000000
     atom  57 type  2   force =    -0.00408261    0.00408261   -0.00000063
     atom  58 type  2   force =    -0.00408258    0.00408231    0.00000064
     atom  59 type  2   force =    -0.00408277    0.00408252    0.00000000
     atom  60 type  2   force =    -0.00408258    0.00408231   -0.00000064
     atom  61 type  2   force =     0.00408258   -0.00408231    0.00000064
     atom  62 type  2   force =     0.00408277   -0.00408252    0.00000000
     atom  63 type  2   force =     0.00408258   -0.00408231   -0.00000064
     atom  64 type  2   force =     0.00408261   -0.00408261    0.00000063
     atom  65 type  2   force =     0.00408280   -0.00408280    0.00000000
     atom  66 type  2   force =     0.00408261   -0.00408261   -0.00000063
     atom  67 type  2   force =     0.00408225   -0.00408225    0.00000063
     atom  68 type  2   force =     0.00408244   -0.00408244    0.00000000
     atom  69 type  2   force =     0.00408225   -0.00408225   -0.00000063
     atom  70 type  2   force =     0.00408231   -0.00408258    0.00000064
     atom  71 type  2   force =     0.00408252   -0.00408277    0.00000000
     atom  72 type  2   force =     0.00408231   -0.00408258   -0.00000064

     Total force =     0.040003     Total SCF correction =     0.000081

     entering subroutine stress ...

          total   stress  (Ry/bohr**3)                   (kbar)     P=  119.49
   0.00072863   0.00000000   0.00000000        107.19      0.00      0.00
   0.00000000   0.00072863   0.00000000          0.00    107.19      0.00
   0.00000000   0.00000000   0.00097948          0.00      0.00    144.09

     Writing output data file cro2.save

     General routines

     Parallel routines

   This run was terminated on:   0:27:52  29Aug2018

   JOB DONE.