     Program PWSCF v.4.3        starts on 29Aug2018 at 11:17:49

     Current dimensions of program PWSCF are:
     Max number of different atomic species (ntypx) = **
     Max number of k-points (npk) =  40000
     Max angular momentum in pseudopotentials (lmaxx) =  3
     Waiting for input...

     Subspace diagonalization in iterative solution of the eigenvalue problem:

   Stick Mesh
   nst =  4753,  nstw =   649, nsts =  2383
               n.st   n.stw   n.sts    n.g    n.gw   n.gs
   min          74      10      37    4548     230    1599
   max          75      11      38    4553     236    1623
       4753     649    2383  291115   14915  103091

     bravais-lattice index     =           14
     lattice parameter (a_0)   =      18.5628  a.u.
     unit-cell volume          =    6094.5942 (a.u.)^3
     number of atoms/cell      =           72
     number of atomic types    =            3
     number of electrons       =       385.00
     number of Kohn-Sham states=          230
     kinetic-energy cutoff     =      25.0000  Ry
     charge density cutoff     =     200.0000  Ry
     convergence threshold     =      1.0E-08
     mixing beta               =       0.3000
     number of iterations used =            8  local-TF  mixing
     Exchange-correlation      = SLA  PW   PBE  PBE (1434)
     EXX-fraction              =        0.00

     celldm(1)=  18.562780  celldm(2)=   1.000000  celldm(3)=   1.100234
     celldm(4)=   0.000000  celldm(5)=   0.000000  celldm(6)=  -0.500000

     crystal axes: (cart. coord. in units of a_0)
               a(1) = (   1.000000   0.000000   0.000000 )
               a(2) = (  -0.500000   0.866025   0.000000 )
               a(3) = (   0.000000   0.000000   1.100234 )

     reciprocal axes: (cart. coord. in units 2 pi/a_0)
               b(1) = (  1.000000  0.577350  0.000000 )
               b(2) = (  0.000000  1.154701  0.000000 )
               b(3) = (  0.000000  0.000000  0.908897 )

     PseudoPot. # 1 for O  read from file O.pbe-van_bm.UPF
     MD5 check sum: ca2828d9fb1f294809e918903b7648d1
     Pseudo is Ultrasoft, Zval =  6.0
     Generated by new atomic code, or converted to UPF format
     Using radial grid of  737 points,  4 beta functions with:
                l(1) =   0
                l(2) =   0
                l(3) =   1
                l(4) =   1
     Q(r) pseudized with  8 coefficients,  rinner =    0.800   0.800   0.800

     PseudoPot. # 2 for Si read from file Si.pbe-n-van.UPF
     MD5 check sum: 8a97496598b7338af554a5de8957bfee
     Pseudo is Ultrasoft + core correction, Zval =  4.0
     Generated by new atomic code, or converted to UPF format
     Using radial grid of  899 points,  6 beta functions with:
                l(1) =   0
                l(2) =   0
                l(3) =   1
                l(4) =   1
                l(5) =   2
                l(6) =   2
     Q(r) pseudized with  8 coefficients,  rinner =    0.900   0.900   0.900
                                                       0.900   0.900

     PseudoPot. # 3 for ox read from file O.pbe-van-dgp-1s1.UPF
     MD5 check sum: 2083901d62884ac3a15d661bda1575b3
     Pseudo is Ultrasoft, Zval =  7.0
     Generated by new atomic code, or converted to UPF format
     Using radial grid of  737 points,  4 beta functions with:
                l(1) =   0
                l(2) =   0
                l(3) =   1
                l(4) =   1
     Q(r) pseudized with  8 coefficients,  rinner =    0.800   0.800   0.800

     atomic species   valence    mass     pseudopotential
        O              6.00    15.99900     O ( 1.00)
        Si             4.00    28.08600     Si( 1.00)
        OX             7.00    15.99900     ox( 1.00)

     No symmetry found

   Cartesian axes

     site n.     atom                  positions (a_0 units)
         1           Si  tau(  1) = (   0.2348500   0.0000000   0.0916862  )
         2           Si  tau(  2) = (   0.2348500   0.0000000   0.6418033  )
         3           Si  tau(  3) = (  -0.0151500   0.4330127   0.0916862  )
         4           Si  tau(  4) = (  -0.0151500   0.4330127   0.6418033  )
         5           Si  tau(  5) = (   0.7348500   0.0000000   0.0916862  )
         6           Si  tau(  6) = (   0.7348500   0.0000000   0.6418033  )
         7           Si  tau(  7) = (   0.4848500   0.4330127   0.0916862  )
         8           Si  tau(  8) = (   0.4848500   0.4330127   0.6418033  )
         9           Si  tau(  9) = (  -0.1174250   0.2033861   0.4584309  )
        10           Si  tau( 10) = (  -0.1174250   0.2033861   1.0085480  )
        11           Si  tau( 11) = (  -0.3674250   0.6363988   0.4584309  )
        12           Si  tau( 12) = (  -0.3674250   0.6363988   1.0085480  )
        13           Si  tau( 13) = (   0.3825750   0.2033861   0.4584309  )
        14           Si  tau( 14) = (   0.3825750   0.2033861   1.0085480  )
        15           Si  tau( 15) = (   0.1325750   0.6363988   0.4584309  )
        16           Si  tau( 16) = (   0.1325750   0.6363988   1.0085480  )
        17           Si  tau( 17) = (   0.1325750   0.2296266   0.2750585  )
        18           Si  tau( 18) = (   0.1325750   0.2296266   0.8251756  )
        19           Si  tau( 19) = (  -0.1174250   0.6626393   0.2750585  )
        20           Si  tau( 20) = (  -0.1174250   0.6626393   0.8251756  )
        21           Si  tau( 21) = (   0.6325750   0.2296266   0.2750585  )
        22           Si  tau( 22) = (   0.6325750   0.2296266   0.8251756  )
        23           Si  tau( 23) = (   0.3825750   0.6626393   0.2750585  )
        24           Si  tau( 24) = (   0.3825750   0.6626393   0.8251756  )
        25           OX  tau( 25) = (   0.1398500   0.1157010   0.1570584  )
        26           O   tau( 26) = (   0.1398500   0.1157010   0.7071755  )
        27           O   tau( 27) = (  -0.1101500   0.5487137   0.1570584  )
        28           O   tau( 28) = (  -0.1101500   0.5487137   0.7071755  )
        29           O   tau( 29) = (   0.6398500   0.1157010   0.1570584  )
        30           O   tau( 30) = (   0.6398500   0.1157010   0.7071755  )
        31           O   tau( 31) = (   0.3898500   0.5487137   0.1570584  )
        32           O   tau( 32) = (   0.3898500   0.5487137   0.7071755  )
        33           O   tau( 33) = (   0.3298750   0.0632632   0.5238031  )
        34           O   tau( 34) = (   0.3298750   0.0632632   1.0739202  )
        35           O   tau( 35) = (   0.0798750   0.4962759   0.5238031  )
        36           O   tau( 36) = (   0.0798750   0.4962759   1.0739202  )
        37           O   tau( 37) = (   0.8298750   0.0632632   0.5238031  )
        38           O   tau( 38) = (   0.8298750   0.0632632   1.0739202  )
        39           O   tau( 39) = (   0.5798750   0.4962759   0.5238031  )
        40           O   tau( 40) = (   0.5798750   0.4962759   1.0739202  )
        41           O   tau( 41) = (   0.2802750   0.2540485   0.3404308  )
        42           O   tau( 42) = (   0.2802750   0.2540485   0.8905478  )
        43           O   tau( 43) = (   0.0302750   0.6870612   0.3404308  )
        44           O   tau( 44) = (   0.0302750   0.6870612   0.8905478  )
        45           O   tau( 45) = (   0.7802750   0.2540485   0.3404308  )
        46           O   tau( 46) = (   0.7802750   0.2540485   0.8905478  )
        47           O   tau( 47) = (   0.5302750   0.6870612   0.3404308  )
        48           O   tau( 48) = (   0.5302750   0.6870612   0.8905478  )
        49           O   tau( 49) = (   0.0302750   0.1789642   0.3930587  )
        50           O   tau( 50) = (   0.0302750   0.1789642   0.9431757  )
        51           O   tau( 51) = (  -0.2197250   0.6119769   0.3930587  )
        52           O   tau( 52) = (  -0.2197250   0.6119769   0.9431757  )
        53           O   tau( 53) = (   0.5302750   0.1789642   0.3930587  )
        54           O   tau( 54) = (   0.5302750   0.1789642   0.9431757  )
        55           O   tau( 55) = (   0.2802750   0.6119769   0.3930587  )
        56           O   tau( 56) = (   0.2802750   0.6119769   0.9431757  )
        57           O   tau( 57) = (  -0.1101500   0.3173117   0.0263139  )
        58           O   tau( 58) = (  -0.1101500   0.3173117   0.5764310  )
        59           O   tau( 59) = (  -0.3601500   0.7503244   0.0263139  )
        60           O   tau( 60) = (  -0.3601500   0.7503244   0.5764310  )
        61           O   tau( 61) = (   0.3898500   0.3173117   0.0263139  )
        62           O   tau( 62) = (   0.3898500   0.3173117   0.5764310  )
        63           O   tau( 63) = (   0.1398500   0.7503244   0.0263139  )
        64           O   tau( 64) = (   0.1398500   0.7503244   0.5764310  )
        65           O   tau( 65) = (   0.0798750   0.3697495   0.2096863  )
        66           O   tau( 66) = (   0.0798750   0.3697495   0.7598034  )
        67           O   tau( 67) = (  -0.1701250   0.8027622   0.2096863  )
        68           O   tau( 68) = (  -0.1701250   0.8027622   0.7598034  )
        69           O   tau( 69) = (   0.5798750   0.3697495   0.2096863  )
        70           O   tau( 70) = (   0.5798750   0.3697495   0.7598034  )
        71           O   tau( 71) = (   0.3298750   0.8027622   0.2096863  )
        72           O   tau( 72) = (   0.3298750   0.8027622   0.7598034  )

     number of k points=     8  Fermi-Dirac smearing, width (Ry)=  0.0019
                       cart. coord. in units 2pi/a_0
        k(    1) = (   0.0000000   0.0000000   0.0000000), wk =   0.2500000
        k(    2) = (   0.0000000   0.0000000  -0.4544487), wk =   0.2500000
        k(    3) = (   0.0000000  -0.5773503   0.0000000), wk =   0.2500000
        k(    4) = (   0.0000000  -0.5773503  -0.4544487), wk =   0.2500000
        k(    5) = (  -0.5000000  -0.2886751   0.0000000), wk =   0.2500000
        k(    6) = (  -0.5000000  -0.2886751  -0.4544487), wk =   0.2500000
        k(    7) = (   0.5000000  -0.2886751   0.0000000), wk =   0.2500000
        k(    8) = (   0.5000000  -0.2886751   0.4544487), wk =   0.2500000

     G cutoff = 1745.6464  ( 291115 G-vectors)     FFT grid: ( 90, 90, 96)
     G cutoff =  872.8232  ( 103091 G-vectors)  smooth grid: ( 60, 60, 72)

     Largest allocated arrays     est. size (Mb)     dimensions
     Largest temporary arrays     est. size (Mb)     dimensions

     Initial potential from superposition of free atoms

     starting charge  383.98382, renormalised to  385.00000
     Starting wfc are  288 atomic wfcs

     Self-consistent Calculation

     iteration #  1     ecut=    25.00 Ry     beta=0.30
     Davidson diagonalization with overlap
     ethr =  1.00E-02,  avg # of iterations =  3.9

     total energy              =   -1792.21955956 Ry
     Harris-Foulkes estimate   =   -1795.53744386 Ry
     estimated scf accuracy    <      16.41414440 Ry

[...]

     total energy              =   -1790.69480073 Ry
     Harris-Foulkes estimate   =   -1790.69480073 Ry
     estimated scf accuracy    <       0.00000001 Ry

     iteration # 25     ecut=    25.00 Ry     beta=0.30
     Davidson diagonalization with overlap
     ethr =  2.74E-12,  avg # of iterations =  2.6

     End of self-consistent calculation

          k = 0.0000 0.0000 0.0000 ( 12915 PWs)   bands (ev):

   -22.2790 -16.9240 -16.6860 -16.4851 -16.4661 -16.4308 -16.4089 -16.3766
   -16.3655 -16.3114 -16.1113 -16.0225 -15.9779 -15.9253 -15.8785 -15.8636
   -15.6275 -15.5309 -15.4987 -15.4344 -15.4242 -15.4102 -15.3277 -15.2844
   -15.0565 -15.0414 -15.0201 -14.9947 -14.8434 -14.8335 -14.7958 -14.7817
   -14.7730 -14.7637 -14.7539 -14.7469 -14.7383 -14.7307 -14.7290 -14.7250
   -14.7218 -14.7181 -14.7122 -14.6915 -14.6806 -14.6757 -14.6661 -14.6378
    -9.7701  -6.6630  -6.3604  -6.0108  -5.8708  -5.7309  -5.6938  -5.6532
    -5.6174  -5.5951  -5.5640  -5.3892  -4.8741  -4.7561  -4.7063  -4.6505
    -4.6300  -4.4573  -3.8807  -3.8134  -3.7257  -3.6573  -3.5525  -3.3318
    -3.2927  -3.2486  -3.0031  -2.9677  -2.9255  -2.8790  -2.8326  -2.7926
    -2.7731  -2.7571  -2.7446  -2.7230  -2.6891  -2.6786  -2.6125  -2.6058
    -2.4999  -2.4853  -2.4297  -2.3289  -2.3033  -2.2810  -2.0903  -1.9844
    -1.9784  -1.9524  -0.8103  -0.6995  -0.6491  -0.6348  -0.6047  -0.5758
    -0.5356  -0.4837  -0.4543  -0.4055  -0.3339  -0.3137  -0.3053  -0.2474
    -0.2224  -0.1725  -0.1112  -0.0779  -0.0729  -0.0188   0.0094   0.0752
     0.1298   0.1495   0.2375   0.2866   0.3083   0.3259   0.4097   0.4298
     0.4617   0.4783   0.4977   0.5196   0.5333   0.5574   0.5712   0.6146
     0.6532   0.7251   0.7849   0.8129   0.8402   0.8947   0.9154   0.9360
     1.0012   1.0279   1.0393   1.0769   1.1093   1.1421   1.1658   1.1942
     1.2854   1.3237   1.3342   1.3751   1.4451   1.4818   1.4874   1.5241
     1.5326   1.5482   1.5686   1.6039   1.6264   1.6308   1.6487   1.7187
     1.7562   1.7700   1.7874   1.8112   1.8283   1.8430   1.9082   1.9916
     2.0004   2.0322   2.1095   2.2360   2.2955   2.3458   2.3675   2.3934
     2.3988   2.4183   2.4484   2.4691   2.5472   2.5954   2.5984   2.6139
     8.2914   9.7992  10.3295  10.6111  10.6365  10.7833  10.9730  11.1944
    11.2694  11.3666  11.4715  11.4938  11.5713  11.7077  11.7146  11.8313
    11.9132  11.9219  11.9535  11.9907  12.0247  12.1248  12.1405  12.2031
    12.2379  12.2855  12.3244  12.3438  12.3530  12.3732  12.3948  12.4004
    12.4159  12.4420  12.6974  12.7406  12.7739  12.8065

[...]

          k =-0.5000-0.2887 0.0000 ( 12872 PWs)   bands (ev):

[...]

          k =-0.5000-0.2887-0.4544 ( 12896 PWs)   bands (ev):

[...]

          k = 0.5000-0.2887 0.4544 ( 12896 PWs)   bands (ev):

   -22.2790 -16.7974 -16.6772 -16.6377 -16.6025 -16.4822 -16.4140 -16.3871
   -16.3455 -16.1214 -16.0419 -15.9818 -15.9684 -15.9383 -15.9066 -15.8962
   -15.8486 -15.5219 -15.4536 -15.4340 -15.3690 -15.3202 -15.2431 -15.1839
   -15.0776 -15.0329 -15.0182 -14.9690 -14.9262 -14.8288 -14.8170 -14.7925
   -14.7773 -14.7657 -14.7620 -14.7598 -14.7536 -14.7441 -14.7378 -14.7287
   -14.7246 -14.7133 -14.7015 -14.6943 -14.6928 -14.6814 -14.6741 -14.6673
    -9.7622  -6.4192  -6.1260  -6.1065  -6.0703  -5.9963  -5.9019  -5.7202
    -5.6705  -5.6374  -5.5065  -4.8422  -4.6877  -4.6625  -4.6388  -4.6172
    -4.6004  -4.5703  -4.3479  -3.8393  -3.7270  -3.7094  -3.6588  -3.3681
    -3.3528  -3.3173  -3.1715  -2.9751  -2.9419  -2.8141  -2.7863  -2.7585
    -2.7536  -2.7361  -2.7034  -2.6059  -2.5579  -2.5211  -2.4968  -2.4647
    -2.4334  -2.4163  -2.4040  -2.3417  -2.2726  -2.2441  -2.2234  -2.1792
    -2.1378  -2.1208  -0.7763  -0.7176  -0.6383  -0.5972  -0.5769  -0.5680
    -0.5601  -0.5145  -0.4285  -0.3972  -0.3099  -0.2658  -0.2240  -0.1634
    -0.1155  -0.0999  -0.0922  -0.0737  -0.0518  -0.0320  -0.0065   0.0116
     0.0416   0.0972   0.1243   0.2012   0.2559   0.3198   0.3466   0.3822
     0.4106   0.4940   0.5146   0.5468   0.5858   0.6209   0.6323   0.6700
     0.6808   0.7107   0.7590   0.7975   0.8643   0.9014   0.9951   1.0050
     1.0290   1.0864   1.0919   1.1243   1.1566   1.1592   1.1952   1.2226
     1.2383   1.2941   1.3159   1.3207   1.3441   1.3628   1.3789   1.4337
     1.4567   1.4840   1.5692   1.6391   1.6492   1.6586   1.6777   1.7450
     1.7535   1.8194   1.8293   1.8469   1.9021   1.9253   1.9361   1.9477
     2.0412   2.1260   2.1351   2.2209   2.2274   2.2441   2.2870   2.3254
     2.3967   2.4160   2.4844   2.5076   2.5186   2.5525   2.5994   2.6072
     9.0258   9.7479   9.8549   9.9671  10.5082  10.6561  10.9330  11.0088
    11.2863  11.3164  11.4491  11.5150  11.6376  11.7157  11.7983  11.8279
    11.8894  11.9482  12.0057  12.0284  12.0793  12.1237  12.1675  12.2186
    12.2353  12.2549  12.3038  12.3246  12.3916  12.5035  12.5657  12.6388
    12.6495  12.7215  12.7549  12.7766  12.8058  12.8508

     the Fermi energy is     8.8979 ev

!    total energy              =   -1790.69480073 Ry
     Harris-Foulkes estimate   =   -1790.69480073 Ry
     estimated scf accuracy    <          2.0E-09 Ry

     The total energy is the sum of the following terms:

     one-electron contribution =    -847.25742763 Ry
     hartree contribution      =     629.08297779 Ry
     xc contribution           =    -453.04735432 Ry
     ewald contribution        =   -1119.47206435 Ry
     smearing contrib. (-TS)   =      -0.00093221 Ry

     convergence has been achieved in  25 iterations
 forces --- starting time for forces:

     Forces acting on atoms (Ry/au):

 forces --- nonlocal contribution:
 forces --- local contribution:
 forces --- NLCC contribution:
 forces --- Hubbard contribution:
 forces --- ionic contribution:
 forces --- SCF contribution:
     atom   1 type  2   force =     0.12581485   -0.15118176   -0.08910481
     atom   2 type  2   force =     0.00438141   -0.00174595    0.00283654
     atom   3 type  2   force =    -0.00793096    0.01649969   -0.01888912
     atom   4 type  2   force =     0.00528762    0.00233193    0.00220223
     atom   5 type  2   force =    -0.00205168   -0.00090325   -0.00057660
     atom   6 type  2   force =     0.00347403   -0.00124039    0.00194478
     atom   7 type  2   force =     0.00905209    0.00269289    0.00273193
     atom   8 type  2   force =     0.00626904    0.00196886    0.00151427
     atom   9 type  2   force =    -0.02737125    0.00787518    0.01350778
     atom  10 type  2   force =    -0.01151344    0.00659656   -0.01018034
     atom  11 type  2   force =    -0.00192048    0.00174407    0.00613145
     atom  12 type  2   force =    -0.00490605   -0.01377987   -0.02062948
     atom  13 type  2   force =     0.01624221   -0.00279346    0.02222382
     atom  14 type  2   force =     0.01068668    0.02540539   -0.01780664
     atom  15 type  2   force =    -0.00185058    0.00535756    0.00384255
     atom  16 type  2   force =    -0.00112012    0.00621410   -0.00350270
     atom  17 type  2   force =    -0.01883943    0.14412363    0.15364987
     atom  18 type  2   force =    -0.00141811   -0.00193982   -0.00789625
     atom  19 type  2   force =     0.00622104   -0.02652583    0.01558112
     atom  20 type  2   force =    -0.00060267   -0.00451681   -0.00364309
     atom  21 type  2   force =    -0.00333212   -0.00374107   -0.00100261
     atom  22 type  2   force =    -0.00213019   -0.00364354   -0.00341013
     atom  23 type  2   force =    -0.00647379   -0.01053282    0.00292320
     atom  24 type  2   force =    -0.00484198   -0.00498131   -0.00224672
     atom  25 type  3   force =    -0.08808657   -0.00314179   -0.04581315
     atom  26 type  1   force =    -0.01708288    0.00404198   -0.00464299
     atom  27 type  1   force =    -0.01706282    0.00386549   -0.00505512
     atom  28 type  1   force =    -0.01635322    0.00338455   -0.00482400
     atom  29 type  1   force =    -0.01603167    0.00271069   -0.00571145
     atom  30 type  1   force =    -0.01595362    0.00380486   -0.00469683
     atom  31 type  1   force =    -0.01680986    0.00386159   -0.00559169
     atom  32 type  1   force =    -0.01604263    0.00371552   -0.00468961
     atom  33 type  1   force =     0.00617144   -0.01383873   -0.00936333
     atom  34 type  1   force =    -0.01529512   -0.02272747    0.01604420
     atom  35 type  1   force =     0.00543739   -0.01673391   -0.00610769
     atom  36 type  1   force =     0.00398800   -0.02031587   -0.00145622
     atom  37 type  1   force =     0.00780849   -0.01431212   -0.00810502
     atom  38 type  1   force =     0.00931989   -0.01629658   -0.00418046
     atom  39 type  1   force =     0.00516114   -0.01533333   -0.00593728
     atom  40 type  1   force =     0.00591796   -0.01394937   -0.00473399
     atom  41 type  1   force =    -0.01113449    0.00674270   -0.03635726
     atom  42 type  1   force =     0.01269873    0.01107401   -0.00125913
     atom  43 type  1   force =     0.00827403    0.01409217   -0.00825147
     atom  44 type  1   force =     0.01140745    0.01236498   -0.00394194
     atom  45 type  1   force =     0.01527562    0.01183998   -0.00455669
     atom  46 type  1   force =     0.01313989    0.01184073   -0.00286287
     atom  47 type  1   force =     0.01158700    0.01639270   -0.00820307
     atom  48 type  1   force =     0.01390367    0.01345514   -0.00160092
     atom  49 type  1   force =     0.03634392   -0.02380810   -0.02099902
     atom  50 type  1   force =     0.01191314   -0.01517760    0.01168910
     atom  51 type  1   force =     0.01275860   -0.01092593    0.00207201
     atom  52 type  1   force =     0.00844623   -0.01140165    0.00925909
     atom  53 type  1   force =     0.00831784   -0.01292344    0.00484239
     atom  54 type  1   force =     0.00766342   -0.01406886    0.00868265
     atom  55 type  1   force =     0.01242705   -0.01230174    0.00377695
     atom  56 type  1   force =     0.01119530   -0.01229346    0.00568458
     atom  57 type  1   force =    -0.01368429   -0.00448123    0.00957188
     atom  58 type  1   force =    -0.01572216   -0.00604493    0.00198937
     atom  59 type  1   force =    -0.01805876    0.02885870    0.03032937
     atom  60 type  1   force =    -0.01698377   -0.00361847    0.00414501
     atom  61 type  1   force =    -0.02160441   -0.00864827    0.00505776
     atom  62 type  1   force =    -0.01891274   -0.00566716    0.00169943
     atom  63 type  1   force =    -0.01594962   -0.00256632    0.00604271
     atom  64 type  1   force =    -0.01605946   -0.00368681    0.00447852
     atom  65 type  1   force =     0.02089149   -0.01018201    0.00802583
     atom  66 type  1   force =     0.00542303    0.01503197    0.00603410
     atom  67 type  1   force =    -0.01932955    0.05115625   -0.00624521
     atom  68 type  1   force =     0.00514087    0.01627518    0.00552117
     atom  69 type  1   force =     0.00469037    0.01632009    0.00472175
     atom  70 type  1   force =     0.00513039    0.01546704    0.00525993
     atom  71 type  1   force =     0.00934632    0.01887086    0.00490893
     atom  72 type  1   force =     0.00525281    0.01599403    0.00514862

     Total force =     0.362908     Total SCF correction =     0.000091

     entering subroutine stress ...

          total   stress  (Ry/bohr**3)                   (kbar)     P=  -58.51
  -0.00041206  -0.00003538  -0.00001793        -60.62     -5.20     -2.64
  -0.00003538  -0.00036100   0.00005042         -5.20    -53.10      7.42
  -0.00001793   0.00005042  -0.00042022         -2.64      7.42    -61.82

     Writing output data file sio2.O25-XCH.save

     General routines

     Parallel routines

   This run was terminated on:  11:25: 2  29Aug2018

   JOB DONE.