     Program PWSCF v.4.3        starts on 29Aug2018 at  1:34:17

     Current dimensions of program PWSCF are:
     Max number of different atomic species (ntypx) = **
     Max number of k-points (npk) =  40000
     Max angular momentum in pseudopotentials (lmaxx) =  3
     Waiting for input...

     Subspace diagonalization in iterative solution of the eigenvalue problem:

   Stick Mesh
   nst =  6657,  nstw =   749, nsts =  2669
               n.st   n.stw   n.sts    n.g    n.gw   n.gs
   min         104      11      41    6328     237    1583
   max         105      12      42    6332     242    1626
       6657     749    2669  405123   15331  102397

     bravais-lattice index     =           14
     lattice parameter (a_0)   =      16.7090  a.u.
     unit-cell volume          =    4616.9515 (a.u.)^3
     number of atoms/cell      =           72
     number of atomic types    =            3
     number of electrons       =       624.00
     number of Kohn-Sham states=          374
     kinetic-energy cutoff     =      30.0000  Ry
     charge density cutoff     =     300.0000  Ry
     convergence threshold     =      1.0E-08
     mixing beta               =       0.3000
     number of iterations used =            8  local-TF  mixing
     Exchange-correlation      = SLA  PW   PBE  PBE (1434)
     EXX-fraction              =        0.00

     celldm(1)=  16.708958  celldm(2)=   1.000000  celldm(3)=   0.989708
     celldm(4)=   0.000000  celldm(5)=   0.000000  celldm(6)=   0.000000

     crystal axes: (cart. coord. in units of a_0)
               a(1) = (   1.000000   0.000000   0.000000 )
               a(2) = (   0.000000   1.000000   0.000000 )
               a(3) = (   0.000000   0.000000   0.989708 )

     reciprocal axes: (cart. coord. in units 2 pi/a_0)
               b(1) = (  1.000000  0.000000  0.000000 )
               b(2) = (  0.000000  1.000000  0.000000 )
               b(3) = (  0.000000  0.000000  1.010399 )

     PseudoPot. # 1 for Cr read from file Cr.pbe-van-yufengl.UPF
     MD5 check sum: b3ad88ce73ccf30ec9a6cdad427f0885
     Pseudo is Ultrasoft, Zval = 14.0
     Generated by new atomic code, or converted to UPF format
     Using radial grid of  857 points,  6 beta functions with:
                l(1) =   0
                l(2) =   0
                l(3) =   1
                l(4) =   1
                l(5) =   2
                l(6) =   2
     Q(r) pseudized with  6 coefficients,  rinner =    1.000   1.000   1.000
                                                       1.000   1.000

     PseudoPot. # 2 for O  read from file O.pbe-van_bm.UPF
     MD5 check sum: ca2828d9fb1f294809e918903b7648d1
     Pseudo is Ultrasoft, Zval =  6.0
     Generated by new atomic code, or converted to UPF format
     Using radial grid of  737 points,  4 beta functions with:
                l(1) =   0
                l(2) =   0
                l(3) =   1
                l(4) =   1
     Q(r) pseudized with  8 coefficients,  rinner =    0.800   0.800   0.800

     PseudoPot. # 3 for ox read from file O.pbe-van-dgp-1s1.UPF
     MD5 check sum: 2083901d62884ac3a15d661bda1575b3
     Pseudo is Ultrasoft, Zval =  7.0
     Generated by new atomic code, or converted to UPF format
     Using radial grid of  737 points,  4 beta functions with:
                l(1) =   0
                l(2) =   0
                l(3) =   1
                l(4) =   1
     Q(r) pseudized with  8 coefficients,  rinner =    0.800   0.800   0.800

     atomic species   valence    mass     pseudopotential
        Cr            14.00    52.00000     Cr( 1.00)
        O              6.00    15.99900     O ( 1.00)
        OX             7.00    15.99900     ox( 1.00)

     Starting magnetic structure
     atomic species   magnetization
        Cr           1.000
        O            0.000
        OX           0.000

     LDA+U calculation, Hubbard_lmax = 2
     atomic species  L   Hubbard U  Hubbard alpha
        Cr           2    0.257245    0.000000

      4 Sym.Ops. (no inversion)

   Cartesian axes

     site n.     atom                  positions (a_0 units)
         1           Cr  tau(  1) = (   0.0000000   0.0000000   0.0000000  )
         2           Cr  tau(  2) = (   0.0000000   0.0000000   0.3299027  )
         3           Cr  tau(  3) = (   0.0000000   0.0000000   0.6598055  )
         4           Cr  tau(  4) = (   0.0000000   0.5000000   0.0000000  )
         5           Cr  tau(  5) = (   0.0000000   0.5000000   0.3299027  )
         6           Cr  tau(  6) = (   0.0000000   0.5000000   0.6598055  )
         7           Cr  tau(  7) = (   0.5000000   0.0000000   0.0000000  )
         8           Cr  tau(  8) = (   0.5000000   0.0000000   0.3299027  )
         9           Cr  tau(  9) = (   0.5000000   0.0000000   0.6598055  )
        10           Cr  tau( 10) = (   0.5000000   0.5000000   0.0000000  )
        11           Cr  tau( 11) = (   0.5000000   0.5000000   0.3299027  )
        12           Cr  tau( 12) = (   0.5000000   0.5000000   0.6598055  )
        13           Cr  tau( 13) = (   0.2500000   0.2500000   0.1649514  )
        14           Cr  tau( 14) = (   0.2500000   0.2500000   0.4948541  )
        15           Cr  tau( 15) = (   0.2500000   0.2500000   0.8247569  )
        16           Cr  tau( 16) = (   0.2500000   0.7500000   0.1649514  )
        17           Cr  tau( 17) = (   0.2500000   0.7500000   0.4948541  )
        18           Cr  tau( 18) = (   0.2500000   0.7500000   0.8247569  )
        19           Cr  tau( 19) = (   0.7500000   0.2500000   0.1649514  )
        20           Cr  tau( 20) = (   0.7500000   0.2500000   0.4948541  )
        21           Cr  tau( 21) = (   0.7500000   0.2500000   0.8247569  )
        22           Cr  tau( 22) = (   0.7500000   0.7500000   0.1649514  )
        23           Cr  tau( 23) = (   0.7500000   0.7500000   0.4948541  )
        24           Cr  tau( 24) = (   0.7500000   0.7500000   0.8247569  )
        25           OX  tau( 25) = (   0.1505000   0.1505000   0.0000000  )
        26           O   tau( 26) = (   0.1505000   0.1505000   0.3299027  )
        27           O   tau( 27) = (   0.1505000   0.1505000   0.6598055  )
        28           O   tau( 28) = (   0.1505000   0.6505000   0.0000000  )
        29           O   tau( 29) = (   0.1505000   0.6505000   0.3299027  )
        30           O   tau( 30) = (   0.1505000   0.6505000   0.6598055  )
        31           O   tau( 31) = (   0.6505000   0.1505000   0.0000000  )
        32           O   tau( 32) = (   0.6505000   0.1505000   0.3299027  )
        33           O   tau( 33) = (   0.6505000   0.1505000   0.6598055  )
        34           O   tau( 34) = (   0.6505000   0.6505000   0.0000000  )
        35           O   tau( 35) = (   0.6505000   0.6505000   0.3299027  )
        36           O   tau( 36) = (   0.6505000   0.6505000   0.6598055  )
        37           O   tau( 37) = (   0.3495000   0.3495000   0.0000000  )
        38           O   tau( 38) = (   0.3495000   0.3495000   0.3299027  )
        39           O   tau( 39) = (   0.3495000   0.3495000   0.6598055  )
        40           O   tau( 40) = (   0.3495000   0.8495000   0.0000000  )
        41           O   tau( 41) = (   0.3495000   0.8495000   0.3299027  )
        42           O   tau( 42) = (   0.3495000   0.8495000   0.6598055  )
        43           O   tau( 43) = (   0.8495000   0.3495000   0.0000000  )
        44           O   tau( 44) = (   0.8495000   0.3495000   0.3299027  )
        45           O   tau( 45) = (   0.8495000   0.3495000   0.6598055  )
        46           O   tau( 46) = (   0.8495000   0.8495000   0.0000000  )
        47           O   tau( 47) = (   0.8495000   0.8495000   0.3299027  )
        48           O   tau( 48) = (   0.8495000   0.8495000   0.6598055  )
        49           O   tau( 49) = (   0.0995000   0.4005000   0.1649514  )
        50           O   tau( 50) = (   0.0995000   0.4005000   0.4948541  )
        51           O   tau( 51) = (   0.0995000   0.4005000   0.8247569  )
        52           O   tau( 52) = (   0.0995000   0.9005000   0.1649514  )
        53           O   tau( 53) = (   0.0995000   0.9005000   0.4948541  )
        54           O   tau( 54) = (   0.0995000   0.9005000   0.8247569  )
        55           O   tau( 55) = (   0.5995000   0.4005000   0.1649514  )
        56           O   tau( 56) = (   0.5995000   0.4005000   0.4948541  )
        57           O   tau( 57) = (   0.5995000   0.4005000   0.8247569  )
        58           O   tau( 58) = (   0.5995000   0.9005000   0.1649514  )
        59           O   tau( 59) = (   0.5995000   0.9005000   0.4948541  )
        60           O   tau( 60) = (   0.5995000   0.9005000   0.8247569  )
        61           O   tau( 61) = (   0.4005000   0.0995000   0.1649514  )
        62           O   tau( 62) = (   0.4005000   0.0995000   0.4948541  )
        63           O   tau( 63) = (   0.4005000   0.0995000   0.8247569  )
        64           O   tau( 64) = (   0.4005000   0.5995000   0.1649514  )
        65           O   tau( 65) = (   0.4005000   0.5995000   0.4948541  )
        66           O   tau( 66) = (   0.4005000   0.5995000   0.8247569  )
        67           O   tau( 67) = (   0.9005000   0.0995000   0.1649514  )
        68           O   tau( 68) = (   0.9005000   0.0995000   0.4948541  )
        69           O   tau( 69) = (   0.9005000   0.0995000   0.8247569  )
        70           O   tau( 70) = (   0.9005000   0.5995000   0.1649514  )
        71           O   tau( 71) = (   0.9005000   0.5995000   0.4948541  )
        72           O   tau( 72) = (   0.9005000   0.5995000   0.8247569  )

     number of k points=    12  Fermi-Dirac smearing, width (Ry)=  0.0019
                       cart. coord. in units 2pi/a_0
        k(    1) = (   0.0000000   0.0000000   0.0000000), wk =   0.1250000
        k(    2) = (   0.0000000   0.0000000  -0.5051994), wk =   0.1250000
        k(    3) = (   0.0000000  -0.5000000   0.0000000), wk =   0.2500000
        k(    4) = (   0.0000000  -0.5000000  -0.5051994), wk =   0.2500000
        k(    5) = (  -0.5000000  -0.5000000   0.0000000), wk =   0.1250000
        k(    6) = (  -0.5000000  -0.5000000  -0.5051994), wk =   0.1250000
        k(    7) = (   0.0000000   0.0000000   0.0000000), wk =   0.1250000
        k(    8) = (   0.0000000   0.0000000  -0.5051994), wk =   0.1250000
        k(    9) = (   0.0000000  -0.5000000   0.0000000), wk =   0.2500000
        k(   10) = (   0.0000000  -0.5000000  -0.5051994), wk =   0.2500000
        k(   11) = (  -0.5000000  -0.5000000   0.0000000), wk =   0.1250000
        k(   12) = (  -0.5000000  -0.5000000  -0.5051994), wk =   0.1250000

     G cutoff = 2121.5842  ( 405123 G-vectors)     FFT grid: ( 96, 96, 96)
     G cutoff =  848.6337  ( 102397 G-vectors)  smooth grid: ( 60, 60, 60)

     Largest allocated arrays     est. size (Mb)     dimensions
     Largest temporary arrays     est. size (Mb)     dimensions

     Initial potential from superposition of free atoms

     starting charge  623.98467, renormalised to  624.00000

     Parameters of the lda+U calculation:
     Number of iteration with fixed ns =  0
[...]
-0.000  0.119  0.286  0.000  0.000
 0.000  0.000  0.000  0.170 -0.000
 0.134  0.000  0.000 -0.000  0.328
atom   24   Tr[ns(na)]=   5.0932985
atom   24   spin  1
eigenvalues:  0.5542884 0.5913277 0.7697482 0.8945645 0.9878214
 eigenvectors
 1  -0.0094692  0.7068768  0.7068768 -0.0000000 -0.0236790
 2   0.5378982  0.0177162  0.0177162  0.0000000  0.8426374
 3  -0.0000000 -0.0319153  0.0319153  0.9989809  0.0000000
 4   0.0000000 -0.7063862  0.7063862 -0.0451351 -0.0000000
 5  -0.8429566  0.0033643  0.0033643 -0.0000000  0.5379605
 occupations
 0.873 -0.001 -0.001  0.000 -0.180
-0.001  0.724 -0.170  0.004  0.001
-0.001 -0.170  0.724 -0.004  0.001
 0.000  0.004 -0.004  0.770 -0.000
-0.180  0.001  0.001 -0.000  0.706
atom   24   spin  2
eigenvalues:  0.1290323 0.1679892 0.1715773 0.4065393 0.4204103
 eigenvectors
 1   0.8310149 -0.0012219 -0.0012219 -0.0000000 -0.5562474
 2   0.0000000  0.7056623 -0.7056623  0.0638861  0.0000000
 3   0.0000000 -0.0451743  0.0451743  0.9979572 -0.0000000
 4   0.0013035 -0.7070972 -0.7070972 -0.0000000  0.0050538
 5  -0.5562486 -0.0034824 -0.0034824  0.0000000 -0.8310014
 occupations
 0.219  0.000  0.000  0.000  0.135
 0.000  0.287  0.119 -0.000 -0.000
 0.000  0.119  0.287  0.000 -0.000
 0.000 -0.000  0.000  0.172 -0.000
 0.135 -0.000 -0.000 -0.000  0.330
nsum = 122.0668928
 exit write_ns

 ------ SPIN UP ------------

          k = 0.0000 0.0000 0.0000 ( 12877 PWs)   bands (ev):

   -62.8432 -62.8342 -62.7514 -62.7501 -62.7429 -62.7422 -62.7379 -62.7365
   -62.7346 -62.7331 -62.7314 -62.7289 -62.7269 -62.7258 -62.7254 -62.7241
   -62.7239 -62.7231 -62.7217 -62.7191 -62.7183 -62.7183 -62.7119 -62.6979
   -34.2746 -34.2315 -34.2045 -34.1856 -34.1779 -34.1728 -34.1495 -34.1455
   -34.1436 -34.1411 -34.1411 -34.1411 -34.1390 -34.1346 -34.1333 -34.1315
   -34.1312 -34.1276 -34.1269 -34.1267 -34.1261 -34.1259 -34.1258 -34.1250
   -34.1221 -34.1214 -34.1161 -34.1013 -34.0794 -34.0710 -34.0684 -34.0677
   -34.0653 -34.0634 -34.0615 -34.0600 -34.0557 -34.0556 -34.0551 -34.0543
   -34.0540 -34.0528 -34.0522 -34.0514 -34.0514 -34.0500 -34.0498 -34.0478
   -34.0465 -34.0464 -34.0455 -34.0452 -34.0448 -34.0445 -34.0433 -34.0426
   -34.0397 -34.0395 -34.0390 -34.0384 -34.0360 -34.0350 -34.0190 -34.0126
   -33.9909 -33.9371 -33.9327 -33.9314 -33.9312 -33.9281 -33.9279 -33.9231
   -11.7286  -8.8379  -8.0479  -8.0266  -8.0226  -8.0143  -8.0089  -7.9958
    -7.9844  -7.8717  -7.4970  -7.4953  -7.4840  -7.4786  -7.4751  -7.4735
    -7.4735  -7.4239  -7.3899  -7.3864  -7.3791  -7.3038  -7.2258  -7.0881
    -7.0844  -7.0754  -7.0680  -7.0628  -7.0289  -7.0020  -6.9964  -6.9907
    -6.9886  -6.9845  -6.9803  -6.9791  -6.9466  -6.9123  -6.9089  -6.9059
    -6.9030  -6.9008  -6.8814  -6.8800  -6.8730  -6.8664  -6.7127  -6.6969
     1.5746   2.2246   2.5931   2.7449   2.9891   3.1122   3.4173   3.5752
     3.5786   3.6017   3.6891   3.7510   3.8374   3.8511   3.8548   3.8555
     3.8590   3.8617   3.8999   3.9172   3.9286   3.9367   3.9393   3.9960
     4.0747   4.1034   4.1087   4.2908   4.3014   4.4254   4.4793   4.5525
     4.7290   4.7467   4.7926   4.7946   4.9271   4.9348   4.9369   4.9404
     4.9414   4.9462   5.0015   5.0544   5.2166   5.2282   5.2565   5.2916
     5.3162   5.3449   5.4249   5.4586   5.5465   5.5521   5.5535   5.5564
     5.5788   5.5792   5.5823   5.5879   5.5911   5.5919   5.6129   5.6216
     5.6651   5.6691   5.6761   5.6771   5.6815   5.7911   5.8025   5.9398
     5.9428   6.1057   6.1064   6.1280   6.3115   6.4207   6.4365   6.4398
     6.4864   6.4872   6.4911   6.5302   6.5538   6.6722   6.7464   6.7484
     6.9042   6.9373   6.9560   6.9575   6.9678   6.9709   6.9740   6.9753
     6.9756   6.9776   6.9950   7.0276   7.0687   7.0995   7.1258   7.1273
     7.1280   7.1294   7.1395   7.1407   7.1489   7.1796   7.1843   7.2058
     7.2369   7.4662   7.6675   7.7712   7.8581   7.8644   7.8692   7.9533
     8.0311   8.0342   8.0400   8.0413   8.0599   8.0740   8.0748   8.0786
     8.0852   8.0873   8.0957   8.3284   8.3682   8.3905   8.3907   8.4366
     8.4372   8.4623   8.4657   8.5237   8.6470   8.6562   8.7263   8.7573
     8.8634   8.8663   8.8709   8.8832   8.8838   8.9039   8.9052   8.9089
     8.9185   8.9485   8.9532   8.9945   9.1819   9.2336   9.3076   9.3835
     9.3903   9.4318   9.4347   9.4386   9.4395   9.4479   9.4735   9.5030
     9.5143   9.5324   9.6350   9.6822   9.6967   9.7200   9.7238   9.7353
     9.7388   9.7437   9.7934   9.8255   9.8323   9.8458   9.8754   9.8758
     9.9269   9.9976  10.0097  10.0132  10.0237  10.0264  10.3632  10.5335
    10.6769  10.6935  10.7179  10.7297  10.7356  10.7357  10.7421  10.8618
    10.9230  10.9377  10.9474  10.9938  11.0096  11.0788  11.1288  11.1448
    11.1526  11.1529  11.1535  11.1607  11.1691  11.4476  11.4769  11.6000
    11.6587  12.3039  12.3122  12.4008  12.4132  12.4144  12.4150  12.4181
    12.4225  12.6602  12.6639  13.1894  13.3517  13.3966

[...]

          k =-0.5000-0.5000 0.0000 ( 12728 PWs)   bands (ev):

[...]

 ------ SPIN DOWN ----------

[...]

          k = 0.0000-0.5000-0.5052 ( 12788 PWs)   bands (ev):

[...]

          k =-0.5000-0.5000-0.5052 ( 12768 PWs)   bands (ev):

   -59.8824 -59.8759 -59.8745 -59.8685 -59.8630 -59.8625 -59.8625 -59.8577
   -59.8575 -59.8565 -59.8563 -59.8532 -59.8529 -59.8474 -59.8469 -59.8463
   -59.8456 -59.8414 -59.8407 -59.8393 -59.8296 -59.8201 -59.8150 -59.6609
   -31.4538 -31.4473 -31.4472 -31.4419 -31.4418 -31.4353 -31.4325 -31.4324
   -31.4312 -31.4299 -31.4294 -31.4281 -31.4266 -31.4257 -31.4209 -31.4194
   -31.4190 -31.4176 -31.4161 -31.4123 -31.3853 -31.3094 -31.3006 -31.2748
   -31.2038 -31.2007 -31.1970 -31.1955 -31.1924 -31.1898 -31.1889 -31.1867
   -31.1851 -31.1843 -31.1841 -31.1813 -31.1807 -31.1798 -31.1769 -31.1733
   -31.1679 -31.1639 -31.1625 -31.1600 -31.1566 -31.1542 -31.1481 -31.1338
   -31.1014 -31.0856 -31.0847 -31.0838 -31.0824 -31.0813 -31.0578 -31.0140
   -30.9932 -30.9764 -30.9477 -30.9460 -30.9435 -30.9424 -30.9420 -30.9397
   -30.9386 -30.9382 -30.9370 -30.9349 -30.9313 -30.9281 -30.9070 -30.8774
   -11.6011  -8.5742  -8.5682  -8.5583  -8.5566  -8.5528  -8.5510  -8.5460
    -8.3628  -7.7253  -7.7133  -7.6940  -7.6921  -7.6919  -7.6912  -7.6881
    -7.6671  -7.6407  -7.6208  -7.6171  -7.6154  -7.6028  -7.5992  -7.5886
    -7.5197  -7.3696  -7.3593  -7.3574  -7.3537  -7.3498  -7.3408  -7.3360
    -7.3298  -7.2977  -7.2969  -7.2846  -7.2801  -7.2782  -7.2769  -7.2735
    -7.2634  -7.2630  -7.2630  -7.2614  -7.2607  -7.2589  -7.2580  -7.2561
     2.1936   2.7454   3.6329   4.3842   4.3897   4.3965   4.3993   4.4016
     4.4029   4.4111   4.6141   4.7505   4.7836   4.8068   4.8216   5.0978
     5.1093   5.1125   5.1206   5.1680   5.1820   5.1848   5.1882   5.1977
     5.1979   5.2031   5.2046   5.2067   5.2240   5.2242   5.2864   5.3129
     5.3196   5.3237   5.3306   5.3307   5.3363   5.3533   5.3615   5.3691
     5.5402   5.5726   5.7677   5.7685   5.7731   5.7739   5.7763   5.7801
     5.7860   5.8043   5.8070   5.8150   5.8388   6.0360   6.2933   6.4288
     6.4292   6.4317   6.4320   6.4364   6.4407   6.4562   6.5101   6.5158
     6.5326   6.5416   6.5437   6.5473   6.6257   6.6724   6.7490   6.7505
     6.7696   6.7758   6.8261   6.8494   6.8555   6.8978   6.9375   6.9419
     6.9467   6.9508   7.0145   7.0512   7.0585   7.0668   7.0714   7.0744
     7.0975   7.2657   7.3642   7.3869   7.4014   7.4053   7.4085   7.4090
     7.4224   7.4227   7.4426   7.4480   7.4550   7.4669   7.4686   7.4691
     7.5992   7.7504   7.7619   7.7702   7.9233   8.1575   8.1676   8.1987
     8.2187   8.2446   8.2799   8.2841   8.3368   8.3557   8.3610   8.3983
     8.4179   8.4568   8.4579   8.5100   8.5196   8.5205   8.5206   8.5243
     8.5286   8.5333   8.5423   8.5424   8.5426   8.5534   8.5555   8.5568
     8.8114   8.9343   8.9382   8.9392   8.9408   8.9424   8.9546   8.9575
    13.3550  13.3564  13.3790  13.3799  13.5085  13.5095  13.5115  13.5149
    13.5182  13.5251  13.5255  13.5554  13.6137  13.6150  13.6316  13.6342
    13.6358  13.6395  13.6426  13.6535  13.8090  13.8178  13.8389  13.8448
    14.0581  14.0799  14.0927  14.0945  14.1039  14.1052  14.1134  14.1161
    14.1183  14.1312  14.1369  14.1396  14.1493  14.1549  14.1594  14.1616
    14.1730  14.1755  14.1760  14.1799  14.3576  14.3596  14.3669  14.3702
    14.3766  14.3862  14.4093  14.4157  14.4187  14.4189  14.4198  14.4406
    14.6277  14.6280  14.6316  14.6370  14.6407  14.6442  14.6460  14.6464
    14.6660  14.6715  14.6832  14.7126  14.7855  14.8195  14.8251  14.8293
    14.8302  14.8548  14.8624  14.8689  14.9380  15.0057  15.0345  15.0395
    15.0396  15.0409  15.0453  15.0616  15.3100  15.4303

     the Fermi energy is    10.3910 ev

!    total energy              =   -5723.99123228 Ry
     Harris-Foulkes estimate   =   -5723.99123141 Ry
     estimated scf accuracy    <          3.0E-09 Ry

     The total energy is the sum of the following terms:

     one-electron contribution =   -2466.56036236 Ry
     hartree contribution      =    1545.10162404 Ry
     xc contribution           =    -818.24861938 Ry
     ewald contribution        =   -3989.33033024 Ry
     Hubbard energy            =       5.05151347 Ry
     smearing contrib. (-TS)   =      -0.00505782 Ry

     total magnetization       =    48.00 Bohr mag/cell
     absolute magnetization    =    77.10 Bohr mag/cell

     convergence has been achieved in  19 iterations
 forces --- starting time for forces:

     Forces acting on atoms (Ry/au):

 forces --- nonlocal contribution:
 forces --- local contribution:
 forces --- NLCC contribution:
 forces --- entering force_hub:
           1  forces --- i/o, init_us_2, calbec, s_psi:
           1  forces --- dn/dtau:
           2  forces --- i/o, init_us_2, calbec, s_psi:
           2  forces --- dn/dtau:
           3  forces --- i/o, init_us_2, calbec, s_psi:
           3  forces --- dn/dtau:
           4  forces --- i/o, init_us_2, calbec, s_psi:
           4  forces --- dn/dtau:
           5  forces --- i/o, init_us_2, calbec, s_psi:
           5  forces --- dn/dtau:
           6  forces --- i/o, init_us_2, calbec, s_psi:
           6  forces --- dn/dtau:
           7  forces --- i/o, init_us_2, calbec, s_psi:
           7  forces --- dn/dtau:
           8  forces --- i/o, init_us_2, calbec, s_psi:
           8  forces --- dn/dtau:
           9  forces --- i/o, init_us_2, calbec, s_psi:
           9  forces --- dn/dtau:
          10  forces --- i/o, init_us_2, calbec, s_psi:
          10  forces --- dn/dtau:
          11  forces --- i/o, init_us_2, calbec, s_psi:
          11  forces --- dn/dtau:
          12  forces --- i/o, init_us_2, calbec, s_psi:
          12  forces --- dn/dtau:
 forces --- Hubbard contribution:
 forces --- ionic contribution:
 forces --- SCF contribution:
     atom   1 type  1   force =    -0.08120667   -0.08120667    0.00000000
     atom   2 type  1   force =    -0.00237690   -0.00237690    0.00371373
     atom   3 type  1   force =    -0.00237690   -0.00237690   -0.00371373
     atom   4 type  1   force =    -0.00470023    0.00429616    0.00000000
     atom   5 type  1   force =    -0.00174051    0.00105213    0.00172128
     atom   6 type  1   force =    -0.00174051    0.00105213   -0.00172128
     atom   7 type  1   force =     0.00429616   -0.00470023    0.00000000
     atom   8 type  1   force =     0.00105213   -0.00174051    0.00172128
     atom   9 type  1   force =     0.00105213   -0.00174051   -0.00172128
     atom  10 type  1   force =     0.00252812    0.00252812    0.00000000
     atom  11 type  1   force =     0.00040183    0.00040183   -0.00166255
     atom  12 type  1   force =     0.00040183    0.00040183    0.00166255
     atom  13 type  1   force =     0.04865635    0.04865635    0.07678804
     atom  14 type  1   force =     0.00033797    0.00033797    0.00000000
     atom  15 type  1   force =     0.04865635    0.04865635   -0.07678804
     atom  16 type  1   force =     0.00255389   -0.00288836    0.00228426
     atom  17 type  1   force =    -0.00016045    0.00090479    0.00000000
     atom  18 type  1   force =     0.00255389   -0.00288836   -0.00228426
     atom  19 type  1   force =    -0.00288836    0.00255389    0.00228426
     atom  20 type  1   force =     0.00090479   -0.00016045    0.00000000
     atom  21 type  1   force =    -0.00288836    0.00255389   -0.00228426
     atom  22 type  1   force =     0.00151778    0.00151778   -0.00063200
     atom  23 type  1   force =     0.00067595    0.00067595    0.00000000
     atom  24 type  1   force =     0.00151778    0.00151778    0.00063200
     atom  25 type  3   force =    -0.00259816   -0.00259816    0.00000000
     atom  26 type  2   force =     0.00448981    0.00448981   -0.00314336
     atom  27 type  2   force =     0.00448981    0.00448981    0.00314336
     atom  28 type  2   force =     0.00332423    0.00418994    0.00000000
     atom  29 type  2   force =     0.00438322    0.00438271   -0.00099049
     atom  30 type  2   force =     0.00438322    0.00438271    0.00099049
     atom  31 type  2   force =     0.00418994    0.00332423    0.00000000
     atom  32 type  2   force =     0.00438271    0.00438322   -0.00099049
     atom  33 type  2   force =     0.00438271    0.00438322    0.00099049
     atom  34 type  2   force =     0.00442355    0.00442355    0.00000000
     atom  35 type  2   force =     0.00389155    0.00389155   -0.00169083
     atom  36 type  2   force =     0.00389155    0.00389155    0.00169083
     atom  37 type  2   force =    -0.01259590   -0.01259590    0.00000000
     atom  38 type  2   force =    -0.00949776   -0.00949776   -0.00595863
     atom  39 type  2   force =    -0.00949776   -0.00949776    0.00595863
     atom  40 type  2   force =    -0.00390061   -0.00422988    0.00000000
     atom  41 type  2   force =    -0.00453189   -0.00415582   -0.00072683
     atom  42 type  2   force =    -0.00453189   -0.00415582    0.00072683
     atom  43 type  2   force =    -0.00422988   -0.00390061    0.00000000
     atom  44 type  2   force =    -0.00415582   -0.00453189   -0.00072683
     atom  45 type  2   force =    -0.00415582   -0.00453189    0.00072683
     atom  46 type  2   force =    -0.00345388   -0.00345388    0.00000000
     atom  47 type  2   force =    -0.00385828   -0.00385828   -0.00086946
     atom  48 type  2   force =    -0.00385828   -0.00385828    0.00086946
     atom  49 type  2   force =    -0.00499535   -0.00170169   -0.00626690
     atom  50 type  2   force =    -0.00455107    0.00408697    0.00000000
     atom  51 type  2   force =    -0.00499535   -0.00170169    0.00626690
     atom  52 type  2   force =    -0.00018826    0.01095402   -0.00306340
     atom  53 type  2   force =    -0.00392110    0.00399000    0.00000000
     atom  54 type  2   force =    -0.00018826    0.01095402    0.00306340
     atom  55 type  2   force =    -0.00344205    0.00389592   -0.00059774
     atom  56 type  2   force =    -0.00437945    0.00438651    0.00000000
     atom  57 type  2   force =    -0.00344205    0.00389592    0.00059774
     atom  58 type  2   force =    -0.00558024    0.00515668    0.00009238
     atom  59 type  2   force =    -0.00599997    0.00579558    0.00000000
     atom  60 type  2   force =    -0.00558024    0.00515668   -0.00009238
     atom  61 type  2   force =    -0.00170169   -0.00499535   -0.00626690
     atom  62 type  2   force =     0.00408697   -0.00455107    0.00000000
     atom  63 type  2   force =    -0.00170169   -0.00499535    0.00626690
     atom  64 type  2   force =     0.00389592   -0.00344205   -0.00059774
     atom  65 type  2   force =     0.00438651   -0.00437945    0.00000000
     atom  66 type  2   force =     0.00389592   -0.00344205    0.00059774
     atom  67 type  2   force =     0.01095402   -0.00018826   -0.00306340
     atom  68 type  2   force =     0.00399000   -0.00392110    0.00000000
     atom  69 type  2   force =     0.01095402   -0.00018826    0.00306340
     atom  70 type  2   force =     0.00515668   -0.00558024    0.00009238
     atom  71 type  2   force =     0.00579558   -0.00599997    0.00000000
     atom  72 type  2   force =     0.00515668   -0.00558024   -0.00009238

     Total force =     0.194142     Total SCF correction =     0.000120

     entering subroutine stress ...

          total   stress  (Ry/bohr**3)                   (kbar)     P=   85.54
   0.00049457   0.00003876   0.00000000         72.75      5.70      0.00
   0.00003876   0.00049457   0.00000000          5.70     72.75      0.00
   0.00000000   0.00000000   0.00075526          0.00      0.00    111.10

     Writing output data file cro2.O25-FCH.save

     General routines

     Parallel routines

   This run was terminated on:   3:10:41  29Aug2018

   JOB DONE.