     Program PWSCF v.4.3        starts on 29Aug2018 at 10:54:50

     Current dimensions of program PWSCF are:
     Max number of different atomic species (ntypx) = **
     Max number of k-points (npk) =  40000
     Max angular momentum in pseudopotentials (lmaxx) =  3
     Waiting for input...

     Subspace diagonalization in iterative solution of the eigenvalue problem:

     Found symmetry operation: I + (  0.0000  0.0000  0.3333)
     This is a supercell, fractional translation are disabled

   Stick Mesh
   nst =  7177,  nstw =   793, nsts =  2877
               n.st   n.stw   n.sts    n.g    n.gw   n.gs
   min         112      12      44    6910     256    1735
   max         114      13      45    6918     263    1759
       7177     793    2877  442525   16599  111903

     bravais-lattice index     =           14
     lattice parameter (a_0)   =      17.3432  a.u.
     unit-cell volume          =    5043.2518 (a.u.)^3
     number of atoms/cell      =           72
     number of atomic types    =            2
     number of electrons       =       576.00
     number of Kohn-Sham states=          345
     kinetic-energy cutoff     =      30.0000  Ry
     charge density cutoff     =     300.0000  Ry
     convergence threshold     =      1.0E-08
     mixing beta               =       0.3000
     number of iterations used =            8  local-TF  mixing
     Exchange-correlation      = SLA  PW   PBE  PBE (1434)
     EXX-fraction              =        0.00

     celldm(1)=  17.343151  celldm(2)=   1.000000  celldm(3)=   0.966778
     celldm(4)=   0.000000  celldm(5)=   0.000000  celldm(6)=   0.000000

     crystal axes: (cart. coord. in units of a_0)
               a(1) = (   1.000000   0.000000   0.000000 )
               a(2) = (   0.000000   1.000000   0.000000 )
               a(3) = (   0.000000   0.000000   0.966778 )

     reciprocal axes: (cart. coord. in units 2 pi/a_0)
               b(1) = (  1.000000  0.000000  0.000000 )
               b(2) = (  0.000000  1.000000  0.000000 )
               b(3) = (  0.000000  0.000000  1.034364 )

     PseudoPot. # 1 for O  read from file O.pbe-van_bm.UPF
     MD5 check sum: ca2828d9fb1f294809e918903b7648d1
     Pseudo is Ultrasoft, Zval =  6.0
     Generated by new atomic code, or converted to UPF format
     Using radial grid of  737 points,  4 beta functions with:
                l(1) =   0
                l(2) =   0
                l(3) =   1
                l(4) =   1
     Q(r) pseudized with  8 coefficients,  rinner =    0.800   0.800   0.800

     PseudoPot. # 2 for Ti read from file Ti.pbe-van-yufengl.UPF
     MD5 check sum: c6a5a6e2bd61e71584bd4e9d5b89d6cc
     Pseudo is Ultrasoft, Zval = 12.0
     Generated by new atomic code, or converted to UPF format
     Using radial grid of  851 points,  6 beta functions with:
                l(1) =   0
                l(2) =   0
                l(3) =   1
                l(4) =   1
                l(5) =   2
                l(6) =   2
     Q(r) pseudized with  6 coefficients,  rinner =    0.700   0.700   0.700
                                                       0.700   0.700

     atomic species   valence    mass     pseudopotential
        O              6.00    15.99900     O ( 1.00)
        Ti            12.00    47.86700     Ti( 1.00)

      8 Sym.Ops. (with inversion)

   Cartesian axes

     site n.     atom                  positions (a_0 units)
         1           Ti  tau(  1) = (   0.0000000   0.0000000   0.0000000  )
         2           Ti  tau(  2) = (   0.0000000   0.0000000   0.3222585  )
         3           Ti  tau(  3) = (   0.0000000   0.0000000   0.6445171  )
         4           Ti  tau(  4) = (   0.0000000   0.4999978   0.0000000  )
         5           Ti  tau(  5) = (   0.0000000   0.4999978   0.3222585  )
         6           Ti  tau(  6) = (   0.0000000   0.4999978   0.6445171  )
         7           Ti  tau(  7) = (   0.4999978   0.0000000   0.0000000  )
         8           Ti  tau(  8) = (   0.4999978   0.0000000   0.3222585  )
         9           Ti  tau(  9) = (   0.4999978   0.0000000   0.6445171  )
        10           Ti  tau( 10) = (   0.4999978   0.4999978   0.0000000  )
        11           Ti  tau( 11) = (   0.4999978   0.4999978   0.3222585  )
        12           Ti  tau( 12) = (   0.4999978   0.4999978   0.6445171  )
        13           Ti  tau( 13) = (   0.2499989   0.2499989   0.1611293  )
        14           Ti  tau( 14) = (   0.2499989   0.2499989   0.4833878  )
        15           Ti  tau( 15) = (   0.2499989   0.2499989   0.8056464  )
        16           Ti  tau( 16) = (   0.2499989   0.7499967   0.1611293  )
        17           Ti  tau( 17) = (   0.2499989   0.7499967   0.4833878  )
        18           Ti  tau( 18) = (   0.2499989   0.7499967   0.8056464  )
        19           Ti  tau( 19) = (   0.7499967   0.2499989   0.1611293  )
        20           Ti  tau( 20) = (   0.7499967   0.2499989   0.4833878  )
        21           Ti  tau( 21) = (   0.7499967   0.2499989   0.8056464  )
        22           Ti  tau( 22) = (   0.7499967   0.7499967   0.1611293  )
        23           Ti  tau( 23) = (   0.7499967   0.7499967   0.4833878  )
        24           Ti  tau( 24) = (   0.7499967   0.7499967   0.8056464  )
        25           O   tau( 25) = (   0.1511643   0.1511643   0.0000000  )
        26           O   tau( 26) = (   0.1511643   0.1511643   0.3222585  )
        27           O   tau( 27) = (   0.1511643   0.1511643   0.6445171  )
        28           O   tau( 28) = (   0.1511643   0.6511621   0.0000000  )
        29           O   tau( 29) = (   0.1511643   0.6511621   0.3222585  )
        30           O   tau( 30) = (   0.1511643   0.6511621   0.6445171  )
        31           O   tau( 31) = (   0.6511621   0.1511643   0.0000000  )
        32           O   tau( 32) = (   0.6511621   0.1511643   0.3222585  )
        33           O   tau( 33) = (   0.6511621   0.1511643   0.6445171  )
        34           O   tau( 34) = (   0.6511621   0.6511621   0.0000000  )
        35           O   tau( 35) = (   0.6511621   0.6511621   0.3222585  )
        36           O   tau( 36) = (   0.6511621   0.6511621   0.6445171  )
        37           O   tau( 37) = (   0.3488335   0.3488335   0.0000000  )
        38           O   tau( 38) = (   0.3488335   0.3488335   0.3222585  )
        39           O   tau( 39) = (   0.3488335   0.3488335   0.6445171  )
        40           O   tau( 40) = (   0.3488335   0.8488313   0.0000000  )
        41           O   tau( 41) = (   0.3488335   0.8488313   0.3222585  )
        42           O   tau( 42) = (   0.3488335   0.8488313   0.6445171  )
        43           O   tau( 43) = (   0.8488313   0.3488335   0.0000000  )
        44           O   tau( 44) = (   0.8488313   0.3488335   0.3222585  )
        45           O   tau( 45) = (   0.8488313   0.3488335   0.6445171  )
        46           O   tau( 46) = (   0.8488313   0.8488313   0.0000000  )
        47           O   tau( 47) = (   0.8488313   0.8488313   0.3222585  )
        48           O   tau( 48) = (   0.8488313   0.8488313   0.6445171  )
        49           O   tau( 49) = (   0.0988346   0.4011633   0.1611293  )
        50           O   tau( 50) = (   0.0988346   0.4011633   0.4833878  )
        51           O   tau( 51) = (   0.0988346   0.4011633   0.8056464  )
        52           O   tau( 52) = (   0.0988346   0.9011611   0.1611293  )
        53           O   tau( 53) = (   0.0988346   0.9011611   0.4833878  )
        54           O   tau( 54) = (   0.0988346   0.9011611   0.8056464  )
        55           O   tau( 55) = (   0.5988324   0.4011633   0.1611293  )
        56           O   tau( 56) = (   0.5988324   0.4011633   0.4833878  )
        57           O   tau( 57) = (   0.5988324   0.4011633   0.8056464  )
        58           O   tau( 58) = (   0.5988324   0.9011611   0.1611293  )
        59           O   tau( 59) = (   0.5988324   0.9011611   0.4833878  )
        60           O   tau( 60) = (   0.5988324   0.9011611   0.8056464  )
        61           O   tau( 61) = (   0.4011633   0.0988346   0.1611293  )
        62           O   tau( 62) = (   0.4011633   0.0988346   0.4833878  )
        63           O   tau( 63) = (   0.4011633   0.0988346   0.8056464  )
        64           O   tau( 64) = (   0.4011633   0.5988324   0.1611293  )
        65           O   tau( 65) = (   0.4011633   0.5988324   0.4833878  )
        66           O   tau( 66) = (   0.4011633   0.5988324   0.8056464  )
        67           O   tau( 67) = (   0.9011611   0.0988346   0.1611293  )
        68           O   tau( 68) = (   0.9011611   0.0988346   0.4833878  )
        69           O   tau( 69) = (   0.9011611   0.0988346   0.8056464  )
        70           O   tau( 70) = (   0.9011611   0.5988324   0.1611293  )
        71           O   tau( 71) = (   0.9011611   0.5988324   0.4833878  )
        72           O   tau( 72) = (   0.9011611   0.5988324   0.8056464  )

     number of k points=     6  Fermi-Dirac smearing, width (Ry)=  0.0019
                       cart. coord. in units 2pi/a_0
        k(    1) = (   0.0000000   0.0000000   0.0000000), wk =   0.2500000
        k(    2) = (   0.0000000   0.0000000  -0.5171819), wk =   0.2500000
        k(    3) = (   0.0000000  -0.5000000   0.0000000), wk =   0.5000000
        k(    4) = (   0.0000000  -0.5000000  -0.5171819), wk =   0.5000000
        k(    5) = (  -0.5000000  -0.5000000   0.0000000), wk =   0.2500000
        k(    6) = (  -0.5000000  -0.5000000  -0.5171819), wk =   0.2500000

     G cutoff = 2285.6909  ( 442525 G-vectors)     FFT grid: ( 96, 96, 96)
     G cutoff =  914.2764  ( 111903 G-vectors)  smooth grid: ( 64, 64, 60)

     Largest allocated arrays     est. size (Mb)     dimensions
     Largest temporary arrays     est. size (Mb)     dimensions

     Initial potential from superposition of free atoms

     starting charge  575.96021, renormalised to  576.00000
     Starting wfc are  432 atomic wfcs

     Self-consistent Calculation

     iteration #  1     ecut=    30.00 Ry     beta=0.30
     Davidson diagonalization with overlap
     ethr =  1.00E-02,  avg # of iterations =  2.0

     total energy              =   -4344.21238953 Ry
     Harris-Foulkes estimate   =   -4350.89928192 Ry
     estimated scf accuracy    <      32.94241435 Ry

[...]

     total energy              =   -4343.29889034 Ry
     Harris-Foulkes estimate   =   -4343.29889026 Ry
     estimated scf accuracy    <       0.00000001 Ry

     iteration # 20     ecut=    30.00 Ry     beta=0.30
     Davidson diagonalization with overlap
     ethr =  1.86E-12,  avg # of iterations =  3.0

     End of self-consistent calculation

          k = 0.0000 0.0000 0.0000 ( 13937 PWs)   bands (ev):

   -47.6963 -47.6882 -47.6875 -47.6875 -47.6874 -47.6874 -47.6866 -47.6787
   -47.6620 -47.6618 -47.6584 -47.6578 -47.6577 -47.6576 -47.6576 -47.6575
   -47.6573 -47.6572 -47.6571 -47.6570 -47.6568 -47.6562 -47.6530 -47.6528
   -24.1512 -24.1511 -24.1510 -24.1510 -24.1506 -24.1506 -24.1505 -24.1504
   -24.1442 -24.1440 -24.1362 -24.1362 -24.1358 -24.1356 -24.1293 -24.1291
   -24.0379 -24.0379 -24.0248 -24.0248 -23.9637 -23.9637 -23.9637 -23.9637
   -23.9389 -23.9388 -23.9388 -23.9387 -23.9313 -23.9313 -23.9312 -23.9311
   -23.9241 -23.9241 -23.9241 -23.9241 -23.8872 -23.8872 -23.8871 -23.8871
   -23.8867 -23.8867 -23.8865 -23.8865 -23.8806 -23.8806 -23.8805 -23.8805
   -23.8801 -23.8801 -23.8799 -23.8799 -23.8587 -23.8586 -23.8506 -23.8505
   -23.8489 -23.8489 -23.8488 -23.8487 -23.8455 -23.8455 -23.8454 -23.8453
   -23.8187 -23.8019 -23.8012 -23.8012 -23.8011 -23.8011 -23.8003 -23.7838
    -9.0923  -8.4178  -8.4178  -8.3327  -8.3327  -8.3322  -8.3322  -8.1913
    -8.1910  -7.9704  -7.9704  -7.9702  -7.9702  -7.9698  -7.9698  -7.9696
    -7.9696  -7.9121  -7.7620  -7.7617  -7.7614  -7.7612  -7.6684  -7.6682
    -7.6678  -7.6677  -7.5658  -7.5656  -7.5653  -7.5651  -7.5466  -7.5464
    -7.4667  -7.4667  -7.4665  -7.4665  -7.4660  -7.4660  -7.4658  -7.4658
    -7.4487  -7.4487  -7.4482  -7.4482  -7.3291  -7.3291  -7.1971  -7.1971
     3.4166   3.6404   3.6405   3.8397   4.2295   4.3200   4.3200   4.3201
     4.3201   4.4420   4.4420   4.4424   4.4425   4.5130   4.5132   4.5135
     4.5137   4.5810   4.5812   4.6324   4.6324   4.6324   4.6324   4.6329
     4.6329   4.6329   4.6329   4.6395   4.6397   4.9201   4.9201   4.9202
     4.9202   4.9204   4.9204   4.9205   4.9205   5.1651   5.1652   5.1654
     5.1654   5.3465   5.3465   5.4205   5.4206   5.4325   5.4326   5.4535
     5.4537   5.4896   5.4896   5.4898   5.4898   5.7227   5.7227   5.7228
     5.7228   5.7232   5.7232   5.7234   5.7234   5.9098   5.9099   5.9103
     5.9104   5.9240   5.9240   5.9241   5.9241   6.0811   6.0811   6.0814
     6.0814   6.1275   6.1276   6.3631   6.3631   6.4797   6.4797   6.4797
     6.4797   6.4803   6.4803   6.4804   6.4804   6.6447   6.6448   6.8771
     6.8772   6.8775   6.8776   7.0079   7.0080   7.1419   7.1420   7.1422
     7.1422   7.1993   7.3823   7.3823   7.3824   7.3824   7.3824   7.3824
     7.3824   7.3824   7.5302   7.5302   7.5304   7.5304   7.6251   7.6253
     7.6256   7.6258   7.6552   7.6553   7.6557   7.6558   7.8909   7.8909
     8.0999   8.0999   8.1917   8.1918   8.2197   8.2197   8.2198   8.2198
     8.2201   8.2201   8.2202   8.2202   8.2503   8.2504   8.2507   8.2508
     8.4937   8.4937   8.4945   8.4945   8.5119   8.7607   8.7607   9.2591
    11.0499  11.0715  11.0716  11.2951  11.4839  11.4839  11.4839  11.4839
    11.4844  11.4844  11.4844  11.4844  11.5778  11.6077  11.6079  11.7029
    11.7029  11.7058  11.7058  11.7059  11.7060  11.7280  11.7280  11.9281
    11.9283  12.1716  12.1717  12.1719  12.1721  12.2025  12.2025  12.2029
    12.2031  12.2331  12.2332  12.2335  12.2337  12.2719  12.2719  12.2720
    12.2720  12.3584  12.3585  12.4583  12.4583  12.4583  12.4583  12.4586
    12.4586  12.4588  12.4588  12.6113  12.6113  12.6117  12.6118  12.7780
    12.7780

[...]

          k = 0.0000-0.5000-0.5172 ( 13952 PWs)   bands (ev):

[...]

          k =-0.5000-0.5000 0.0000 ( 14028 PWs)   bands (ev):

[...]

          k =-0.5000-0.5000-0.5172 ( 13984 PWs)   bands (ev):

   -47.6822 -47.6816 -47.6815 -47.6815 -47.6810 -47.6810 -47.6810 -47.6805
   -47.6744 -47.6739 -47.6739 -47.6739 -47.6734 -47.6734 -47.6733 -47.6727
   -47.6484 -47.6474 -47.6473 -47.6473 -47.6473 -47.6473 -47.6473 -47.6461
   -24.2554 -24.2553 -24.2553 -24.2552 -24.2454 -24.2454 -24.2453 -24.2452
   -24.0017 -24.0017 -24.0016 -24.0016 -24.0011 -24.0011 -24.0011 -24.0011
   -23.9507 -23.9507 -23.9507 -23.9507 -23.9506 -23.9506 -23.9506 -23.9505
   -23.9433 -23.9432 -23.9431 -23.9431 -23.9430 -23.9429 -23.9428 -23.9427
   -23.9094 -23.9094 -23.9093 -23.9093 -23.9092 -23.9092 -23.9090 -23.9090
   -23.8896 -23.8896 -23.8896 -23.8895 -23.8800 -23.8800 -23.8799 -23.8799
   -23.8798 -23.8798 -23.8797 -23.8797 -23.8769 -23.8769 -23.8769 -23.8768
   -23.8582 -23.8577 -23.8577 -23.8576 -23.8561 -23.8561 -23.8561 -23.8555
   -23.8505 -23.8505 -23.8505 -23.8505 -23.8500 -23.8499 -23.8499 -23.8499
    -8.4971  -8.4965  -8.4963  -8.4962  -8.4957  -8.4957  -8.4954  -8.4949
    -8.0286  -8.0286  -8.0286  -8.0286  -7.8431  -7.8429  -7.8428  -7.8426
    -7.8426  -7.8424  -7.8423  -7.8421  -7.7350  -7.7350  -7.7350  -7.7350
    -7.5936  -7.5936  -7.5935  -7.5935  -7.5789  -7.5784  -7.5784  -7.5783
    -7.5779  -7.5778  -7.5778  -7.5773  -7.3824  -7.3824  -7.3822  -7.3822
    -7.3819  -7.3819  -7.3817  -7.3817  -7.2823  -7.2823  -7.2823  -7.2823
     3.9390   3.9391   3.9392   3.9393   3.9395   3.9396   3.9398   3.9399
     4.1426   4.1426   4.1427   4.1427   4.7174   4.7175   4.7177   4.7177
     4.7177   4.7178   4.7181   4.7182   4.7247   4.7248   4.7248   4.7248
     4.7252   4.7252   4.7253   4.7254   4.7735   4.7735   4.7735   4.7735
     4.9107   4.9107   4.9107   4.9107   4.9875   4.9876   4.9876   4.9876
     5.0806   5.0806   5.0806   5.0806   5.0807   5.0807   5.0807   5.0807
     5.1364   5.1364   5.1365   5.1365   5.7017   5.7019   5.7021   5.7021
     5.7023   5.7023   5.7026   5.7028   6.1539   6.1539   6.1540   6.1541
     6.1541   6.1541   6.1542   6.1542   6.4200   6.4200   6.4200   6.4200
     6.5651   6.5651   6.5651   6.5651   6.6202   6.6202   6.6202   6.6202
     6.6647   6.6647   6.6647   6.6648   6.6648   6.6648   6.6649   6.6649
     6.9910   6.9910   6.9911   6.9911   6.9913   6.9913   6.9914   6.9914
     7.1467   7.1467   7.1468   7.1468   7.1471   7.1471   7.1472   7.1472
     7.3157   7.3157   7.3157   7.3157   7.7042   7.7042   7.7042   7.7042
     7.8263   7.8263   7.8263   7.8263   7.9868   7.9868   7.9869   7.9869
     7.9872   7.9873   7.9873   7.9873   8.0001   8.0001   8.0001   8.0001
     8.0373   8.0375   8.0375   8.0377   8.0377   8.0378   8.0379   8.0380
     8.5645   8.5650   8.5653   8.5653   8.5658   8.5658   8.5661   8.5666
    11.3413  11.3413  11.3413  11.3413  11.5266  11.5268  11.5269  11.5271
    11.5271  11.5273  11.5273  11.5275  11.6378  11.6379  11.6380  11.6381
    11.6381  11.6382  11.6383  11.6384  11.9800  11.9802  11.9803  11.9803
    11.9805  11.9806  11.9806  11.9808  12.0425  12.0425  12.0426  12.0426
    12.3797  12.3797  12.3797  12.3797  12.4065  12.4065  12.4066  12.4066
    12.4066  12.4066  12.4067  12.4068  12.4351  12.4351  12.4351  12.4351
    12.4480  12.4482  12.4483  12.4484  12.4485  12.4486  12.4487  12.4489
    12.4986

     the Fermi energy is    10.0100 ev

!    total energy              =   -4343.29889047 Ry
     Harris-Foulkes estimate   =   -4343.29889039 Ry
     estimated scf accuracy    <          3.4E-09 Ry

     The total energy is the sum of the following terms:

     one-electron contribution =   -1506.86843184 Ry
     hartree contribution      =    1027.86661996 Ry
     xc contribution           =    -686.12416018 Ry
     ewald contribution        =   -3178.17291840 Ry
     smearing contrib. (-TS)   =      -0.00000000 Ry

     convergence has been achieved in  20 iterations
 forces --- starting time for forces:

     Forces acting on atoms (Ry/au):

 forces --- nonlocal contribution:
 forces --- local contribution:
 forces --- NLCC contribution:
 forces --- Hubbard contribution:
 forces --- ionic contribution:
 forces --- SCF contribution:
     atom   1 type  2   force =     0.00000000    0.00000000    0.00000000
     atom   2 type  2   force =     0.00000000    0.00000000   -0.00000251
     atom   3 type  2   force =     0.00000000    0.00000000    0.00000251
     atom   4 type  2   force =     0.00000000    0.00000000    0.00000000
     atom   5 type  2   force =     0.00000000    0.00000000   -0.00000247
     atom   6 type  2   force =     0.00000000    0.00000000    0.00000247
     atom   7 type  2   force =     0.00000000    0.00000000    0.00000000
     atom   8 type  2   force =     0.00000000    0.00000000   -0.00000247
     atom   9 type  2   force =     0.00000000    0.00000000    0.00000247
     atom  10 type  2   force =     0.00000000    0.00000000    0.00000000
     atom  11 type  2   force =     0.00000000    0.00000000   -0.00000246
     atom  12 type  2   force =     0.00000000    0.00000000    0.00000246
     atom  13 type  2   force =    -0.00000151   -0.00000151   -0.00000644
     atom  14 type  2   force =    -0.00000149   -0.00000149    0.00000000
     atom  15 type  2   force =    -0.00000151   -0.00000151    0.00000644
     atom  16 type  2   force =     0.00000032   -0.00000032   -0.00000633
     atom  17 type  2   force =     0.00000033   -0.00000033    0.00000000
     atom  18 type  2   force =     0.00000032   -0.00000032    0.00000633
     atom  19 type  2   force =    -0.00000032    0.00000032   -0.00000633
     atom  20 type  2   force =    -0.00000033    0.00000033    0.00000000
     atom  21 type  2   force =    -0.00000032    0.00000032    0.00000633
     atom  22 type  2   force =     0.00000151    0.00000151   -0.00000644
     atom  23 type  2   force =     0.00000149    0.00000149    0.00000000
     atom  24 type  2   force =     0.00000151    0.00000151    0.00000644
     atom  25 type  1   force =     0.00640675    0.00640675    0.00000000
     atom  26 type  1   force =     0.00640760    0.00640760   -0.00000038
     atom  27 type  1   force =     0.00640760    0.00640760    0.00000038
     atom  28 type  1   force =     0.00641114    0.00641509    0.00000000
     atom  29 type  1   force =     0.00641183    0.00641576   -0.00000031
     atom  30 type  1   force =     0.00641183    0.00641576    0.00000031
     atom  31 type  1   force =     0.00641509    0.00641114    0.00000000
     atom  32 type  1   force =     0.00641576    0.00641183   -0.00000031
     atom  33 type  1   force =     0.00641576    0.00641183    0.00000031
     atom  34 type  1   force =     0.00641895    0.00641895    0.00000000
     atom  35 type  1   force =     0.00641968    0.00641968   -0.00000035
     atom  36 type  1   force =     0.00641968    0.00641968    0.00000035
     atom  37 type  1   force =    -0.00641895   -0.00641895    0.00000000
     atom  38 type  1   force =    -0.00641968   -0.00641968   -0.00000035
     atom  39 type  1   force =    -0.00641968   -0.00641968    0.00000035
     atom  40 type  1   force =    -0.00641509   -0.00641114    0.00000000
     atom  41 type  1   force =    -0.00641576   -0.00641183   -0.00000031
     atom  42 type  1   force =    -0.00641576   -0.00641183    0.00000031
     atom  43 type  1   force =    -0.00641114   -0.00641509    0.00000000
     atom  44 type  1   force =    -0.00641183   -0.00641576   -0.00000031
     atom  45 type  1   force =    -0.00641183   -0.00641576    0.00000031
     atom  46 type  1   force =    -0.00640675   -0.00640675    0.00000000
     atom  47 type  1   force =    -0.00640760   -0.00640760   -0.00000038
     atom  48 type  1   force =    -0.00640760   -0.00640760    0.00000038
     atom  49 type  1   force =    -0.00643182    0.00642646   -0.00000267
     atom  50 type  1   force =    -0.00643137    0.00642602    0.00000000
     atom  51 type  1   force =    -0.00643182    0.00642646    0.00000267
     atom  52 type  1   force =    -0.00643784    0.00643784   -0.00000288
     atom  53 type  1   force =    -0.00643752    0.00643752    0.00000000
     atom  54 type  1   force =    -0.00643784    0.00643784    0.00000288
     atom  55 type  1   force =    -0.00641945    0.00641945   -0.00000292
     atom  56 type  1   force =    -0.00641919    0.00641919    0.00000000
     atom  57 type  1   force =    -0.00641945    0.00641945    0.00000292
     atom  58 type  1   force =    -0.00642646    0.00643182   -0.00000267
     atom  59 type  1   force =    -0.00642602    0.00643137    0.00000000
     atom  60 type  1   force =    -0.00642646    0.00643182    0.00000267
     atom  61 type  1   force =     0.00642646   -0.00643182   -0.00000267
     atom  62 type  1   force =     0.00642602   -0.00643137    0.00000000
     atom  63 type  1   force =     0.00642646   -0.00643182    0.00000267
     atom  64 type  1   force =     0.00641945   -0.00641945   -0.00000292
     atom  65 type  1   force =     0.00641919   -0.00641919    0.00000000
     atom  66 type  1   force =     0.00641945   -0.00641945    0.00000292
     atom  67 type  1   force =     0.00643784   -0.00643784   -0.00000288
     atom  68 type  1   force =     0.00643752   -0.00643752    0.00000000
     atom  69 type  1   force =     0.00643784   -0.00643784    0.00000288
     atom  70 type  1   force =     0.00643182   -0.00642646   -0.00000267
     atom  71 type  1   force =     0.00643137   -0.00642602    0.00000000
     atom  72 type  1   force =     0.00643182   -0.00642646    0.00000267

     Total force =     0.062914     Total SCF correction =     0.000158

     entering subroutine stress ...

          total   stress  (Ry/bohr**3)                   (kbar)     P=   53.60
   0.00038464  -0.00000001   0.00000000         56.58     -0.00      0.00
  -0.00000001   0.00038464   0.00000000         -0.00     56.58      0.00
   0.00000000   0.00000000   0.00032372          0.00      0.00     47.62

     Writing output data file tio2.save

     General routines

     Parallel routines

   This run was terminated on:  11: 2: 5  29Aug2018

   JOB DONE.