     Program PWSCF v.4.3        starts on 29Aug2018 at 11:22: 2

     Current dimensions of program PWSCF are:
     Max number of different atomic species (ntypx) = **
     Max number of k-points (npk) =  40000
     Max angular momentum in pseudopotentials (lmaxx) =  3
     Waiting for input...

     Subspace diagonalization in iterative solution of the eigenvalue problem:

   Stick Mesh
   nst =  7177,  nstw =   793, nsts =  2877
               n.st   n.stw   n.sts    n.g    n.gw   n.gs
   min         112      12      44    6910     256    1735
   max         114      13      45    6918     263    1759
       7177     793    2877  442525   16599  111903

     bravais-lattice index     =           14
     lattice parameter (a_0)   =      17.3432  a.u.
     unit-cell volume          =    5043.2518 (a.u.)^3
     number of atoms/cell      =           72
     number of atomic types    =            3
     number of electrons       =       576.00
     number of Kohn-Sham states=          345
     kinetic-energy cutoff     =      30.0000  Ry
     charge density cutoff     =     300.0000  Ry
     convergence threshold     =      1.0E-08
     mixing beta               =       0.3000
     number of iterations used =            8  local-TF  mixing
     Exchange-correlation      = SLA  PW   PBE  PBE (1434)
     EXX-fraction              =        0.00

     celldm(1)=  17.343151  celldm(2)=   1.000000  celldm(3)=   0.966778
     celldm(4)=   0.000000  celldm(5)=   0.000000  celldm(6)=   0.000000

     crystal axes: (cart. coord. in units of a_0)
               a(1) = (   1.000000   0.000000   0.000000 )
               a(2) = (   0.000000   1.000000   0.000000 )
               a(3) = (   0.000000   0.000000   0.966778 )

     reciprocal axes: (cart. coord. in units 2 pi/a_0)
               b(1) = (  1.000000  0.000000  0.000000 )
               b(2) = (  0.000000  1.000000  0.000000 )
               b(3) = (  0.000000  0.000000  1.034364 )

     PseudoPot. # 1 for O  read from file O.pbe-van_bm.UPF
     MD5 check sum: ca2828d9fb1f294809e918903b7648d1
     Pseudo is Ultrasoft, Zval =  6.0
     Generated by new atomic code, or converted to UPF format
     Using radial grid of  737 points,  4 beta functions with:
                l(1) =   0
                l(2) =   0
                l(3) =   1
                l(4) =   1
     Q(r) pseudized with  8 coefficients,  rinner =    0.800   0.800   0.800

     PseudoPot. # 2 for Ti read from file Ti.pbe-van-yufengl.UPF
     MD5 check sum: c6a5a6e2bd61e71584bd4e9d5b89d6cc
     Pseudo is Ultrasoft, Zval = 12.0
     Generated by new atomic code, or converted to UPF format
     Using radial grid of  851 points,  6 beta functions with:
                l(1) =   0
                l(2) =   0
                l(3) =   1
                l(4) =   1
                l(5) =   2
                l(6) =   2
     Q(r) pseudized with  6 coefficients,  rinner =    0.700   0.700   0.700
                                                       0.700   0.700

     PseudoPot. # 3 for ox read from file O.pbe-van-dgp-1s1.UPF
     MD5 check sum: 2083901d62884ac3a15d661bda1575b3
     Pseudo is Ultrasoft, Zval =  7.0
     Generated by new atomic code, or converted to UPF format
     Using radial grid of  737 points,  4 beta functions with:
                l(1) =   0
                l(2) =   0
                l(3) =   1
                l(4) =   1
     Q(r) pseudized with  8 coefficients,  rinner =    0.800   0.800   0.800

     atomic species   valence    mass     pseudopotential
        O              6.00    15.99900     O ( 1.00)
        Ti            12.00    47.86700     Ti( 1.00)
        OX             7.00    15.99900     ox( 1.00)

     Starting magnetic structure
     atomic species   magnetization
        O            0.000
        Ti           0.010
        OX           0.000

      4 Sym.Ops. (no inversion)

   Cartesian axes

     site n.     atom                  positions (a_0 units)
         1           Ti  tau(  1) = (   0.0000000   0.0000000   0.0000000  )
         2           Ti  tau(  2) = (   0.0000000   0.0000000   0.3222585  )
         3           Ti  tau(  3) = (   0.0000000   0.0000000   0.6445171  )
         4           Ti  tau(  4) = (   0.0000000   0.4999978   0.0000000  )
         5           Ti  tau(  5) = (   0.0000000   0.4999978   0.3222585  )
         6           Ti  tau(  6) = (   0.0000000   0.4999978   0.6445171  )
         7           Ti  tau(  7) = (   0.4999978   0.0000000   0.0000000  )
         8           Ti  tau(  8) = (   0.4999978   0.0000000   0.3222585  )
         9           Ti  tau(  9) = (   0.4999978   0.0000000   0.6445171  )
        10           Ti  tau( 10) = (   0.4999978   0.4999978   0.0000000  )
        11           Ti  tau( 11) = (   0.4999978   0.4999978   0.3222585  )
        12           Ti  tau( 12) = (   0.4999978   0.4999978   0.6445171  )
        13           Ti  tau( 13) = (   0.2499989   0.2499989   0.1611293  )
        14           Ti  tau( 14) = (   0.2499989   0.2499989   0.4833878  )
        15           Ti  tau( 15) = (   0.2499989   0.2499989   0.8056464  )
        16           Ti  tau( 16) = (   0.2499989   0.7499967   0.1611293  )
        17           Ti  tau( 17) = (   0.2499989   0.7499967   0.4833878  )
        18           Ti  tau( 18) = (   0.2499989   0.7499967   0.8056464  )
        19           Ti  tau( 19) = (   0.7499967   0.2499989   0.1611293  )
        20           Ti  tau( 20) = (   0.7499967   0.2499989   0.4833878  )
        21           Ti  tau( 21) = (   0.7499967   0.2499989   0.8056464  )
        22           Ti  tau( 22) = (   0.7499967   0.7499967   0.1611293  )
        23           Ti  tau( 23) = (   0.7499967   0.7499967   0.4833878  )
        24           Ti  tau( 24) = (   0.7499967   0.7499967   0.8056464  )
        25           OX  tau( 25) = (   0.1511643   0.1511643   0.0000000  )
        26           O   tau( 26) = (   0.1511643   0.1511643   0.3222585  )
        27           O   tau( 27) = (   0.1511643   0.1511643   0.6445171  )
        28           O   tau( 28) = (   0.1511643   0.6511621   0.0000000  )
        29           O   tau( 29) = (   0.1511643   0.6511621   0.3222585  )
        30           O   tau( 30) = (   0.1511643   0.6511621   0.6445171  )
        31           O   tau( 31) = (   0.6511621   0.1511643   0.0000000  )
        32           O   tau( 32) = (   0.6511621   0.1511643   0.3222585  )
        33           O   tau( 33) = (   0.6511621   0.1511643   0.6445171  )
        34           O   tau( 34) = (   0.6511621   0.6511621   0.0000000  )
        35           O   tau( 35) = (   0.6511621   0.6511621   0.3222585  )
        36           O   tau( 36) = (   0.6511621   0.6511621   0.6445171  )
        37           O   tau( 37) = (   0.3488335   0.3488335   0.0000000  )
        38           O   tau( 38) = (   0.3488335   0.3488335   0.3222585  )
        39           O   tau( 39) = (   0.3488335   0.3488335   0.6445171  )
        40           O   tau( 40) = (   0.3488335   0.8488313   0.0000000  )
        41           O   tau( 41) = (   0.3488335   0.8488313   0.3222585  )
        42           O   tau( 42) = (   0.3488335   0.8488313   0.6445171  )
        43           O   tau( 43) = (   0.8488313   0.3488335   0.0000000  )
        44           O   tau( 44) = (   0.8488313   0.3488335   0.3222585  )
        45           O   tau( 45) = (   0.8488313   0.3488335   0.6445171  )
        46           O   tau( 46) = (   0.8488313   0.8488313   0.0000000  )
        47           O   tau( 47) = (   0.8488313   0.8488313   0.3222585  )
        48           O   tau( 48) = (   0.8488313   0.8488313   0.6445171  )
        49           O   tau( 49) = (   0.0988346   0.4011633   0.1611293  )
        50           O   tau( 50) = (   0.0988346   0.4011633   0.4833878  )
        51           O   tau( 51) = (   0.0988346   0.4011633   0.8056464  )
        52           O   tau( 52) = (   0.0988346   0.9011611   0.1611293  )
        53           O   tau( 53) = (   0.0988346   0.9011611   0.4833878  )
        54           O   tau( 54) = (   0.0988346   0.9011611   0.8056464  )
        55           O   tau( 55) = (   0.5988324   0.4011633   0.1611293  )
        56           O   tau( 56) = (   0.5988324   0.4011633   0.4833878  )
        57           O   tau( 57) = (   0.5988324   0.4011633   0.8056464  )
        58           O   tau( 58) = (   0.5988324   0.9011611   0.1611293  )
        59           O   tau( 59) = (   0.5988324   0.9011611   0.4833878  )
        60           O   tau( 60) = (   0.5988324   0.9011611   0.8056464  )
        61           O   tau( 61) = (   0.4011633   0.0988346   0.1611293  )
        62           O   tau( 62) = (   0.4011633   0.0988346   0.4833878  )
        63           O   tau( 63) = (   0.4011633   0.0988346   0.8056464  )
        64           O   tau( 64) = (   0.4011633   0.5988324   0.1611293  )
        65           O   tau( 65) = (   0.4011633   0.5988324   0.4833878  )
        66           O   tau( 66) = (   0.4011633   0.5988324   0.8056464  )
        67           O   tau( 67) = (   0.9011611   0.0988346   0.1611293  )
        68           O   tau( 68) = (   0.9011611   0.0988346   0.4833878  )
        69           O   tau( 69) = (   0.9011611   0.0988346   0.8056464  )
        70           O   tau( 70) = (   0.9011611   0.5988324   0.1611293  )
        71           O   tau( 71) = (   0.9011611   0.5988324   0.4833878  )
        72           O   tau( 72) = (   0.9011611   0.5988324   0.8056464  )

     number of k points=    12  Fermi-Dirac smearing, width (Ry)=  0.0019
                       cart. coord. in units 2pi/a_0
        k(    1) = (   0.0000000   0.0000000   0.0000000), wk =   0.1250000
        k(    2) = (   0.0000000   0.0000000  -0.5171819), wk =   0.1250000
        k(    3) = (   0.0000000  -0.5000000   0.0000000), wk =   0.2500000
        k(    4) = (   0.0000000  -0.5000000  -0.5171819), wk =   0.2500000
        k(    5) = (  -0.5000000  -0.5000000   0.0000000), wk =   0.1250000
        k(    6) = (  -0.5000000  -0.5000000  -0.5171819), wk =   0.1250000
        k(    7) = (   0.0000000   0.0000000   0.0000000), wk =   0.1250000
        k(    8) = (   0.0000000   0.0000000  -0.5171819), wk =   0.1250000
        k(    9) = (   0.0000000  -0.5000000   0.0000000), wk =   0.2500000
        k(   10) = (   0.0000000  -0.5000000  -0.5171819), wk =   0.2500000
        k(   11) = (  -0.5000000  -0.5000000   0.0000000), wk =   0.1250000
        k(   12) = (  -0.5000000  -0.5000000  -0.5171819), wk =   0.1250000

     G cutoff = 2285.6909  ( 442525 G-vectors)     FFT grid: ( 96, 96, 96)
     G cutoff =  914.2764  ( 111903 G-vectors)  smooth grid: ( 64, 64, 60)

     Largest allocated arrays     est. size (Mb)     dimensions
     Largest temporary arrays     est. size (Mb)     dimensions

     Initial potential from superposition of free atoms

     starting charge  575.96021, renormalised to  576.00000
     Starting wfc are  432 atomic wfcs

     Self-consistent Calculation

     iteration #  1     ecut=    30.00 Ry     beta=0.30
     Davidson diagonalization with overlap
     ethr =  1.00E-02,  avg # of iterations =  2.0

     total energy              =   -4361.09097003 Ry
     Harris-Foulkes estimate   =   -4367.71194186 Ry
     estimated scf accuracy    <      33.05682823 Ry

     total magnetization       =    -0.00 Bohr mag/cell
     absolute magnetization    =     0.30 Bohr mag/cell

[...]

     total energy              =   -4359.65846634 Ry
     Harris-Foulkes estimate   =   -4359.65846634 Ry
     estimated scf accuracy    <       0.00000003 Ry

[...]

     iteration # 24     ecut=    30.00 Ry     beta=0.30
     Davidson diagonalization with overlap
     ethr =  5.15E-12,  avg # of iterations =  2.3

     End of self-consistent calculation

 ------ SPIN UP ------------

          k = 0.0000 0.0000 0.0000 ( 13937 PWs)   bands (ev):

   -48.2111 -48.1893 -48.0646 -47.7429 -47.6987 -47.6793 -47.6547 -47.6541
   -47.6316 -47.6187 -47.6184 -47.6153 -47.6148 -47.6023 -47.6015 -47.6003
   -47.5957 -47.5948 -47.5943 -47.5828 -47.5759 -47.5637 -47.5634 -47.5501
   -24.7793 -24.5868 -24.4861 -24.4238 -24.4058 -24.3984 -24.3849 -24.3667
   -24.2733 -24.1616 -24.1074 -24.1070 -24.0945 -24.0825 -24.0805 -24.0781
   -24.0659 -24.0625 -24.0598 -24.0590 -24.0559 -24.0431 -24.0413 -24.0089
   -23.9808 -23.9709 -23.9657 -23.9361 -23.9333 -23.9271 -23.9213 -23.9159
   -23.9150 -23.9057 -23.8870 -23.8859 -23.8780 -23.8757 -23.8684 -23.8609
   -23.8528 -23.8526 -23.8489 -23.8487 -23.8441 -23.8421 -23.8350 -23.8335
   -23.8297 -23.8264 -23.8194 -23.8173 -23.8155 -23.8102 -23.8009 -23.7984
   -23.7940 -23.7883 -23.7853 -23.7846 -23.7815 -23.7803 -23.7695 -23.7662
   -23.7654 -23.7611 -23.7600 -23.7569 -23.7309 -23.7187 -23.7152 -23.7069
   -12.9258  -9.0337  -8.4593  -8.3971  -8.3136  -8.2907  -8.2799  -8.2532
    -8.2204  -8.1707  -8.0292  -8.0046  -7.9862  -7.9576  -7.9355  -7.9239
    -7.8923  -7.8882  -7.8277  -7.7729  -7.7584  -7.7336  -7.7032  -7.6947
    -7.6270  -7.6218  -7.5855  -7.5844  -7.5572  -7.5471  -7.5348  -7.5212
    -7.4884  -7.4555  -7.4451  -7.4345  -7.4133  -7.4124  -7.3997  -7.3942
    -7.3917  -7.3787  -7.3660  -7.3561  -7.2752  -7.2696  -7.1540  -7.1368
     0.8711   1.3511   2.0928   3.4880   3.6472   3.7664   3.9008   4.2803
     4.3325   4.3522   4.3597   4.4110   4.4526   4.4720   4.4722   4.5076
     4.5257   4.5473   4.5780   4.5913   4.6089   4.6242   4.6622   4.6786
     4.6811   4.6855   4.6870   4.7109   4.7170   4.7213   4.7271   4.8615
     4.9181   4.9357   4.9402   4.9644   4.9928   5.0057   5.0130   5.2038
     5.2066   5.2068   5.2109   5.3205   5.3406   5.3783   5.4210   5.4708
     5.4731   5.4863   5.5145   5.5504   5.5572   5.5846   5.6115   5.6642
     5.7152   5.7195   5.7204   5.7763   5.8003   5.8022   5.8170   5.8504
     5.8997   5.9188   5.9490   5.9570   5.9670   5.9929   6.0805   6.0807
     6.1257   6.1261   6.1513   6.1869   6.3250   6.3745   6.4103   6.4225
     6.5032   6.5110   6.5176   6.5190   6.5241   6.6507   6.6531   6.7626
     6.7627   6.8719   6.9073   6.9120   6.9435   7.0216   7.1112   7.1242
     7.1438   7.1780   7.2384   7.2564   7.3665   7.3917   7.3935   7.3959
     7.3999   7.4213   7.4469   7.5145   7.5395   7.5579   7.6179   7.6234
     7.6425   7.6505   7.6723   7.6843   7.7038   7.7116   7.8977   7.9047
     7.9226   8.0536   8.1251   8.1275   8.1399   8.2097   8.2166   8.2286
     8.2597   8.2628   8.2749   8.2851   8.3160   8.3209   8.3265   8.3284
     8.4445   8.4969   8.5226   8.5305   8.5530   8.7616   8.7869   9.2702
    10.8230  11.0624  11.1117  11.2421  11.2760  11.3045  11.3903  11.3958
    11.4179  11.5259  11.5306  11.5415  11.5574  11.5881  11.6011  11.6213
    11.6326  11.6424  11.6750  11.6987  11.7450  11.7760  11.7865  11.7938
    11.8907  11.9242  12.0475  12.0974  12.1451  12.1582  12.1635  12.1834
    12.2035  12.2038  12.2190  12.2513  12.2615  12.2713  12.2881  12.3311
    12.3392  12.3446  12.3461  12.4404  12.4579  12.4720  12.4821  12.5080
    12.5085  12.5106  12.5310  12.5538  12.5856  12.6286  12.6412  12.6466
    12.7208

[...]

          k =-0.5000-0.5000 0.0000 ( 14028 PWs)   bands (ev):

[...]

 ------ SPIN DOWN ----------

[...]

          k = 0.0000-0.5000-0.5172 ( 13952 PWs)   bands (ev):

[...]

          k =-0.5000-0.5000-0.5172 ( 13984 PWs)   bands (ev):

   -48.2107 -48.1897 -48.0646 -47.7429 -47.6992 -47.6788 -47.6523 -47.6521
   -47.6288 -47.6221 -47.6216 -47.6146 -47.6143 -47.6044 -47.6003 -47.5993
   -47.5979 -47.5974 -47.5957 -47.5829 -47.5784 -47.5615 -47.5615 -47.5475
   -24.8058 -24.5551 -24.4923 -24.4517 -24.4055 -24.3836 -24.3789 -24.3700
   -24.2727 -24.2035 -24.2009 -24.1761 -24.1741 -24.1627 -24.1583 -24.0766
   -24.0760 -24.0086 -23.9789 -23.9761 -23.9475 -23.9450 -23.9367 -23.9337
   -23.9269 -23.9235 -23.9224 -23.9153 -23.9104 -23.9009 -23.8928 -23.8921
   -23.8890 -23.8869 -23.8835 -23.8812 -23.8783 -23.8754 -23.8682 -23.8673
   -23.8664 -23.8622 -23.8533 -23.8456 -23.8401 -23.8379 -23.8338 -23.8294
   -23.8248 -23.8231 -23.8228 -23.8225 -23.8206 -23.8168 -23.8149 -23.8118
   -23.8092 -23.8074 -23.7996 -23.7987 -23.7952 -23.7934 -23.7933 -23.7901
   -23.7886 -23.7873 -23.7792 -23.7727 -23.7711 -23.7684 -23.7624 -23.7565
   -12.9250  -8.5578  -8.5340  -8.4810  -8.4520  -8.4460  -8.4317  -8.4058
    -8.3978  -8.0542  -8.0395  -8.0346  -7.9365  -7.8702  -7.8611  -7.8596
    -7.8545  -7.8169  -7.7900  -7.7672  -7.7499  -7.7274  -7.7111  -7.6958
    -7.6768  -7.6424  -7.6250  -7.6155  -7.5937  -7.5740  -7.5702  -7.5113
    -7.5113  -7.4992  -7.4946  -7.4693  -7.3978  -7.3760  -7.3473  -7.3353
    -7.3252  -7.3092  -7.3005  -7.2781  -7.2748  -7.2378  -7.2360  -7.1887
     0.8763   1.3379   2.0956   3.9010   3.9145   3.9168   3.9835   3.9996
     4.0180   4.0441   4.1708   4.2013   4.2112   4.2168   4.2542   4.6678
     4.6929   4.7041   4.7231   4.7283   4.7325   4.7519   4.7526   4.7534
     4.7782   4.7799   4.7883   4.8022   4.8068   4.8103   4.8223   4.8313
     4.8446   4.8535   4.8978   4.9419   4.9527   4.9944   5.0096   5.0106
     5.0270   5.0752   5.0880   5.0909   5.1049   5.1053   5.1109   5.1392
     5.1626   5.1683   5.1837   5.1852   5.2265   5.4498   5.6955   5.6977
     5.7078   5.7443   5.7805   5.7899   5.8325   5.8921   5.9197   6.1264
     6.1468   6.1835   6.1958   6.2119   6.2522   6.3220   6.3235   6.4094
     6.4460   6.4479   6.5140   6.5654   6.5976   6.6113   6.6202   6.6255
     6.6520   6.6622   6.6695   6.6844   6.6898   6.7013   6.7061   6.7118
     6.7308   6.8773   6.9780   7.0016   7.0060   7.0282   7.0319   7.0621
     7.0918   7.1100   7.1550   7.1605   7.1629   7.1907   7.1934   7.2086
     7.2225   7.3182   7.3411   7.3999   7.4801   7.5953   7.7047   7.7148
     7.7699   7.7821   7.8412   7.8717   7.8720   7.8991   7.9538   7.9766
     8.0013   8.0016   8.0128   8.0143   8.0350   8.0383   8.0426   8.0472
     8.0498   8.0721   8.0733   8.0769   8.0783   8.0983   8.1002   8.1254
     8.3312   8.5475   8.5717   8.5947   8.6258   8.6344   8.6470   8.6717
    11.1355  11.2037  11.2229  11.2818  11.3524  11.3799  11.4375  11.4462
    11.4532  11.5191  11.5362  11.5730  11.5752  11.6050  11.6225  11.6325
    11.6391  11.6602  11.6882  11.7055  11.8052  11.8444  11.9008  11.9664
    11.9814  11.9886  12.0013  12.0146  12.0524  12.0565  12.0818  12.1015
    12.1114  12.1717  12.2577  12.3117  12.3162  12.3376  12.3734  12.3950
    12.4297  12.4402  12.4415  12.4420  12.4566  12.4585  12.4638  12.4722
    12.4792  12.4810  12.4848  12.4896  12.5044  12.5066  12.5154  12.5193
    12.5216

     the Fermi energy is    10.0128 ev

!    total energy              =   -4359.65846635 Ry
     Harris-Foulkes estimate   =   -4359.65846635 Ry
     estimated scf accuracy    <          7.3E-09 Ry

     The total energy is the sum of the following terms:

     one-electron contribution =   -1518.13365199 Ry
     hartree contribution      =    1033.17206996 Ry
     xc contribution           =    -687.40161049 Ry
     ewald contribution        =   -3187.29527383 Ry
     smearing contrib. (-TS)   =      -0.00000000 Ry

     total magnetization       =     0.00 Bohr mag/cell
     absolute magnetization    =     0.00 Bohr mag/cell

     convergence has been achieved in  24 iterations
 forces --- starting time for forces:

     Forces acting on atoms (Ry/au):

 forces --- nonlocal contribution:
 forces --- local contribution:
 forces --- NLCC contribution:
 forces --- Hubbard contribution:
 forces --- ionic contribution:
 forces --- SCF contribution:
     atom   1 type  2   force =    -0.10223320   -0.10223320    0.00000000
     atom   2 type  2   force =    -0.01173951   -0.01173951    0.01864432
     atom   3 type  2   force =    -0.01173951   -0.01173951   -0.01864432
     atom   4 type  2   force =    -0.01383232    0.01859095    0.00000000
     atom   5 type  2   force =    -0.00919107    0.00881336    0.01074857
     atom   6 type  2   force =    -0.00919107    0.00881336   -0.01074857
     atom   7 type  2   force =     0.01859095   -0.01383232    0.00000000
     atom   8 type  2   force =     0.00881336   -0.00919107    0.01074857
     atom   9 type  2   force =     0.00881336   -0.00919107   -0.01074857
     atom  10 type  2   force =     0.01677353    0.01677353    0.00000000
     atom  11 type  2   force =     0.01253458    0.01253458    0.00185943
     atom  12 type  2   force =     0.01253458    0.01253458   -0.00185943
     atom  13 type  2   force =     0.06670796    0.06670796    0.12773206
     atom  14 type  2   force =    -0.00032161   -0.00032161    0.00000000
     atom  15 type  2   force =     0.06670796    0.06670796   -0.12773206
     atom  16 type  2   force =     0.00904135   -0.01152169    0.00435806
     atom  17 type  2   force =     0.00244359   -0.00199231    0.00000000
     atom  18 type  2   force =     0.00904135   -0.01152169   -0.00435806
     atom  19 type  2   force =    -0.01152169    0.00904135    0.00435806
     atom  20 type  2   force =    -0.00199231    0.00244359    0.00000000
     atom  21 type  2   force =    -0.01152169    0.00904135   -0.00435806
     atom  22 type  2   force =    -0.00543798   -0.00543798    0.00793160
     atom  23 type  2   force =    -0.00204826   -0.00204826    0.00000000
     atom  24 type  2   force =    -0.00543798   -0.00543798   -0.00793160
     atom  25 type  3   force =    -0.01114677   -0.01114677    0.00000000
     atom  26 type  1   force =     0.01254952    0.01254952   -0.01894103
     atom  27 type  1   force =     0.01254952    0.01254952    0.01894103
     atom  28 type  1   force =     0.00492459    0.00529945    0.00000000
     atom  29 type  1   force =     0.00557591    0.00589667   -0.00293338
     atom  30 type  1   force =     0.00557591    0.00589667    0.00293338
     atom  31 type  1   force =     0.00529945    0.00492459    0.00000000
     atom  32 type  1   force =     0.00589667    0.00557591   -0.00293338
     atom  33 type  1   force =     0.00589667    0.00557591    0.00293338
     atom  34 type  1   force =     0.00555237    0.00555237    0.00000000
     atom  35 type  1   force =     0.00604542    0.00604542   -0.00171390
     atom  36 type  1   force =     0.00604542    0.00604542    0.00171390
     atom  37 type  1   force =    -0.03901501   -0.03901501    0.00000000
     atom  38 type  1   force =    -0.02575913   -0.02575913   -0.02605402
     atom  39 type  1   force =    -0.02575913   -0.02575913    0.02605402
     atom  40 type  1   force =    -0.00784942   -0.00079761    0.00000000
     atom  41 type  1   force =    -0.00715159   -0.00433615   -0.00244072
     atom  42 type  1   force =    -0.00715159   -0.00433615    0.00244072
     atom  43 type  1   force =    -0.00079761   -0.00784942    0.00000000
     atom  44 type  1   force =    -0.00433615   -0.00715159   -0.00244072
     atom  45 type  1   force =    -0.00433615   -0.00715159    0.00244072
     atom  46 type  1   force =     0.01644896    0.01644896    0.00000000
     atom  47 type  1   force =    -0.00170858   -0.00170858   -0.00244380
     atom  48 type  1   force =    -0.00170858   -0.00170858    0.00244380
     atom  49 type  1   force =     0.01029287   -0.02118142   -0.01158996
     atom  50 type  1   force =    -0.00135861    0.00151861    0.00000000
     atom  51 type  1   force =     0.01029287   -0.02118142    0.01158996
     atom  52 type  1   force =    -0.00837329    0.02638724   -0.01785569
     atom  53 type  1   force =    -0.00921470    0.01200049    0.00000000
     atom  54 type  1   force =    -0.00837329    0.02638724    0.01785569
     atom  55 type  1   force =    -0.00808603    0.00483371   -0.00160644
     atom  56 type  1   force =    -0.00973780    0.00605007    0.00000000
     atom  57 type  1   force =    -0.00808603    0.00483371    0.00160644
     atom  58 type  1   force =    -0.00896973    0.00983341   -0.00229021
     atom  59 type  1   force =    -0.01001193    0.00984528    0.00000000
     atom  60 type  1   force =    -0.00896973    0.00983341    0.00229021
     atom  61 type  1   force =    -0.02118142    0.01029287   -0.01158996
     atom  62 type  1   force =     0.00151861   -0.00135861    0.00000000
     atom  63 type  1   force =    -0.02118142    0.01029287    0.01158996
     atom  64 type  1   force =     0.00483371   -0.00808603   -0.00160644
     atom  65 type  1   force =     0.00605007   -0.00973780    0.00000000
     atom  66 type  1   force =     0.00483371   -0.00808603    0.00160644
     atom  67 type  1   force =     0.02638724   -0.00837329   -0.01785569
     atom  68 type  1   force =     0.01200049   -0.00921470    0.00000000
     atom  69 type  1   force =     0.02638724   -0.00837329    0.01785569
     atom  70 type  1   force =     0.00983341   -0.00896973   -0.00229021
     atom  71 type  1   force =     0.00984528   -0.01001193    0.00000000
     atom  72 type  1   force =     0.00983341   -0.00896973    0.00229021

     Total force =     0.311040     Total SCF correction =     0.000383

     entering subroutine stress ...

          total   stress  (Ry/bohr**3)                   (kbar)     P=   23.21
   0.00016637   0.00004716   0.00000000         24.47      6.94      0.00
   0.00004716   0.00016637   0.00000000          6.94     24.47      0.00
   0.00000000   0.00000000   0.00014061          0.00      0.00     20.68

     Writing output data file tio2.O25-FCH.save

     General routines

     Parallel routines

   This run was terminated on:  11:38:59  29Aug2018

   JOB DONE.