     Program PWSCF v.4.3        starts on 10Sep2018 at 23:30: 7

     Current dimensions of program PWSCF are:
     Max number of different atomic species (ntypx) = **
     Max number of k-points (npk) =  40000
     Max angular momentum in pseudopotentials (lmaxx) =  3
     Waiting for input...

     Subspace diagonalization in iterative solution of the eigenvalue problem:

   Stick Mesh
   nst = 10457,  nstw =  1155, nsts =  4177
               n.st   n.stw   n.sts    n.g    n.gw   n.gs
   min         163      18      65    9923     362    2501
   max         164      19      66    9926     366    2528
      10457    1155    4177  635163   23329  160693

     bravais-lattice index     =           14
     lattice parameter (a_0)   =      21.7375  a.u.
     unit-cell volume          =    7238.1051 (a.u.)^3
     number of atoms/cell      =           84
     number of atomic types    =            3
     number of electrons       =       672.00
     number of Kohn-Sham states=          403
     kinetic-energy cutoff     =      30.0000  Ry
     charge density cutoff     =     300.0000  Ry
     convergence threshold     =      1.0E-08
     mixing beta               =       0.3000
     number of iterations used =            8  local-TF  mixing
     Exchange-correlation      = SLA  PW   PBE  PBE (1434)
     EXX-fraction              =        0.00

     celldm(1)=  21.737520  celldm(2)=   0.927671  celldm(3)=   0.759628
     celldm(4)=   0.000000  celldm(5)=   0.000000  celldm(6)=   0.000000

     crystal axes: (cart. coord. in units of a_0)
               a(1) = (   1.000000   0.000000   0.000000 )
               a(2) = (   0.000000   0.927671   0.000000 )
               a(3) = (   0.000000   0.000000   0.759628 )

     reciprocal axes: (cart. coord. in units 2 pi/a_0)
               b(1) = (  1.000000  0.000000  0.000000 )
               b(2) = (  0.000000  1.077968  0.000000 )
               b(3) = (  0.000000  0.000000  1.316434 )

     PseudoPot. # 1 for O  read from file O.pbe-van_bm.UPF
     MD5 check sum: ca2828d9fb1f294809e918903b7648d1
     Pseudo is Ultrasoft, Zval =  6.0
     Generated by new atomic code, or converted to UPF format
     Using radial grid of  737 points,  4 beta functions with:
                l(1) =   0
                l(2) =   0
                l(3) =   1
                l(4) =   1
     Q(r) pseudized with  8 coefficients,  rinner =    0.800   0.800   0.800

     PseudoPot. # 2 for V  read from file V.pbe-van-yufengl.UPF
     MD5 check sum: 105a573f738f0b837c178d5a4207921b
     Pseudo is Ultrasoft + core correction, Zval = 13.0
     Generated by new atomic code, or converted to UPF format
     Using radial grid of  853 points,  6 beta functions with:
                l(1) =   0
                l(2) =   0
                l(3) =   1
                l(4) =   1
                l(5) =   2
                l(6) =   2
     Q(r) pseudized with  6 coefficients,  rinner =    1.000   1.000   1.000
                                                       1.000   1.000

     PseudoPot. # 3 for ox read from file O.pbe-van-dgp-1s1.UPF
     MD5 check sum: 2083901d62884ac3a15d661bda1575b3
     Pseudo is Ultrasoft, Zval =  7.0
     Generated by new atomic code, or converted to UPF format
     Using radial grid of  737 points,  4 beta functions with:
                l(1) =   0
                l(2) =   0
                l(3) =   1
                l(4) =   1
     Q(r) pseudized with  8 coefficients,  rinner =    0.800   0.800   0.800

     atomic species   valence    mass     pseudopotential
        O              6.00    15.99900     O ( 1.00)
        V             13.00    50.94000     V ( 1.00)
        OX             7.00    15.99900     ox( 1.00)

     Starting magnetic structure
     atomic species   magnetization
        O            0.000
        V            0.010
        OX           0.000

     LDA+U calculation, Hubbard_lmax = 2
     atomic species  L   Hubbard U  Hubbard alpha
        V            2    0.227846    0.000000

      2 Sym.Ops. (no inversion)

   Cartesian axes

     site n.     atom                  positions (a_0 units)
         1           V   tau(  1) = (   0.1483269   0.0000000   0.3388149  )
         2           V   tau(  2) = (   0.1483269   0.0000000   0.7186289  )
         3           V   tau(  3) = (   0.1483269   0.3092237   0.3388149  )
         4           V   tau(  4) = (   0.1483269   0.3092237   0.7186289  )
         5           V   tau(  5) = (   0.1483269   0.6184474   0.3388149  )
         6           V   tau(  6) = (   0.1483269   0.6184474   0.7186289  )
         7           V   tau(  7) = (   0.3516731   0.1546118   0.0409986  )
         8           V   tau(  8) = (   0.3516731   0.1546118   0.4208125  )
         9           V   tau(  9) = (   0.3516731   0.4638355   0.0409986  )
        10           V   tau( 10) = (   0.3516731   0.4638355   0.4208125  )
        11           V   tau( 11) = (   0.3516731   0.7730592   0.0409986  )
        12           V   tau( 12) = (   0.3516731   0.7730592   0.4208125  )
        13           V   tau( 13) = (   0.6483270   0.1546118   0.0409980  )
        14           V   tau( 14) = (   0.6483270   0.1546118   0.4208119  )
        15           V   tau( 15) = (   0.6483270   0.4638355   0.0409980  )
        16           V   tau( 16) = (   0.6483270   0.4638355   0.4208119  )
        17           V   tau( 17) = (   0.6483270   0.7730592   0.0409980  )
        18           V   tau( 18) = (   0.6483270   0.7730592   0.4208119  )
        19           V   tau( 19) = (   0.8516731   0.0000000   0.3388154  )
        20           V   tau( 20) = (   0.8516731   0.0000000   0.7186293  )
        21           V   tau( 21) = (   0.8516731   0.3092237   0.3388154  )
        22           V   tau( 22) = (   0.8516731   0.3092237   0.7186293  )
        23           V   tau( 23) = (   0.8516731   0.6184474   0.3388154  )
        24           V   tau( 24) = (   0.8516731   0.6184474   0.7186293  )
        25           O   tau( 25) = (   0.1813361   0.1546118   0.3796345  )
        26           O   tau( 26) = (   0.1813361   0.1546118   0.7594484  )
        27           O   tau( 27) = (   0.1813361   0.4638355   0.3796345  )
        28           O   tau( 28) = (   0.1813361   0.4638355   0.7594484  )
        29           O   tau( 29) = (   0.1813361   0.7730592   0.3796345  )
        30           O   tau( 30) = (   0.1813361   0.7730592   0.7594484  )
        31           OX  tau( 31) = (   0.3186639   0.0000000   0.0001795  )
        32           O   tau( 32) = (   0.3186639   0.0000000   0.3799935  )
        33           O   tau( 33) = (   0.3186639   0.3092237   0.0001795  )
        34           O   tau( 34) = (   0.3186639   0.3092237   0.3799935  )
        35           O   tau( 35) = (   0.3186639   0.6184474   0.0001795  )
        36           O   tau( 36) = (   0.3186639   0.6184474   0.3799935  )
        37           O   tau( 37) = (   0.6813362   0.0000000   0.0001795  )
        38           O   tau( 38) = (   0.6813362   0.0000000   0.3799935  )
        39           O   tau( 39) = (   0.6813362   0.3092237   0.0001795  )
        40           O   tau( 40) = (   0.6813362   0.3092237   0.3799935  )
        41           O   tau( 41) = (   0.6813362   0.6184474   0.0001795  )
        42           O   tau( 42) = (   0.6813362   0.6184474   0.3799935  )
        43           O   tau( 43) = (   0.8186639   0.1546118   0.3796345  )
        44           O   tau( 44) = (   0.8186639   0.1546118   0.7594485  )
        45           O   tau( 45) = (   0.8186639   0.4638355   0.3796345  )
        46           O   tau( 46) = (   0.8186639   0.4638355   0.7594485  )
        47           O   tau( 47) = (   0.8186639   0.7730592   0.3796345  )
        48           O   tau( 48) = (   0.8186639   0.7730592   0.7594485  )
        49           O   tau( 49) = (   0.8552736   0.0000000   0.2004983  )
        50           O   tau( 50) = (   0.8552736   0.0000000   0.5803123  )
        51           O   tau( 51) = (   0.8552736   0.3092237   0.2004983  )
        52           O   tau( 52) = (   0.8552736   0.3092237   0.5803123  )
        53           O   tau( 53) = (   0.8552736   0.6184474   0.2004983  )
        54           O   tau( 54) = (   0.8552736   0.6184474   0.5803123  )
        55           O   tau( 55) = (   0.6447264   0.1546118   0.1793162  )
        56           O   tau( 56) = (   0.6447264   0.1546118   0.5591301  )
        57           O   tau( 57) = (   0.6447264   0.4638355   0.1793162  )
        58           O   tau( 58) = (   0.6447264   0.4638355   0.5591301  )
        59           O   tau( 59) = (   0.6447264   0.7730592   0.1793162  )
        60           O   tau( 60) = (   0.6447264   0.7730592   0.5591301  )
        61           O   tau( 61) = (   0.3552736   0.1546118   0.1793157  )
        62           O   tau( 62) = (   0.3552736   0.1546118   0.5591297  )
        63           O   tau( 63) = (   0.3552736   0.4638355   0.1793157  )
        64           O   tau( 64) = (   0.3552736   0.4638355   0.5591297  )
        65           O   tau( 65) = (   0.3552736   0.7730592   0.1793157  )
        66           O   tau( 66) = (   0.3552736   0.7730592   0.5591297  )
        67           O   tau( 67) = (   0.5000000   0.1546118   0.3788864  )
        68           O   tau( 68) = (   0.5000000   0.1546118   0.7587004  )
        69           O   tau( 69) = (   0.5000000   0.4638355   0.3788864  )
        70           O   tau( 70) = (   0.5000000   0.4638355   0.7587004  )
        71           O   tau( 71) = (   0.5000000   0.7730592   0.3788864  )
        72           O   tau( 72) = (   0.5000000   0.7730592   0.7587004  )
        73           O   tau( 73) = (  -0.0000000   0.0000000   0.0009276  )
        74           O   tau( 74) = (  -0.0000000   0.0000000   0.3807415  )
        75           O   tau( 75) = (  -0.0000000   0.3092237   0.0009276  )
        76           O   tau( 76) = (  -0.0000000   0.3092237   0.3807415  )
        77           O   tau( 77) = (  -0.0000000   0.6184474   0.0009276  )
        78           O   tau( 78) = (  -0.0000000   0.6184474   0.3807415  )
        79           O   tau( 79) = (   0.1447264   0.0000000   0.2004987  )
        80           O   tau( 80) = (   0.1447264   0.0000000   0.5803126  )
        81           O   tau( 81) = (   0.1447264   0.3092237   0.2004987  )
        82           O   tau( 82) = (   0.1447264   0.3092237   0.5803126  )
        83           O   tau( 83) = (   0.1447264   0.6184474   0.2004987  )
        84           O   tau( 84) = (   0.1447264   0.6184474   0.5803126  )

     number of k points=    16  Fermi-Dirac smearing, width (Ry)=  0.0019
                       cart. coord. in units 2pi/a_0
        k(    1) = (   0.0000000   0.0000000   0.0000000), wk =   0.1250000
        k(    2) = (   0.0000000   0.0000000  -0.6582170), wk =   0.1250000
        k(    3) = (   0.0000000  -0.5389842   0.0000000), wk =   0.1250000
        k(    4) = (   0.0000000  -0.5389842  -0.6582170), wk =   0.1250000
        k(    5) = (  -0.5000000   0.0000000   0.0000000), wk =   0.1250000
        k(    6) = (  -0.5000000   0.0000000  -0.6582170), wk =   0.1250000
[...]
-0.001  0.000  0.005 -0.000  0.312
nsum = 111.2813589
 exit write_ns

 ------ SPIN UP ------------

          k = 0.0000 0.0000 0.0000 ( 20075 PWs)   bands (ev):

   -60.5722 -60.5704 -60.3495 -59.9634 -59.9612 -59.9610 -59.9471 -59.9470
   -59.9198 -59.8256 -59.8222 -59.8123 -59.8019 -59.7892 -59.7890 -59.7165
   -59.7117 -59.7069 -59.7065 -59.7027 -59.6946 -59.6520 -59.6460 -59.6431
   -34.6036 -34.5565 -34.4793 -34.4714 -34.4140 -34.4054 -34.3355 -34.2663
   -34.1640 -33.9207 -33.9104 -33.9083 -33.9050 -33.9021 -33.9019 -33.8878
   -33.8749 -33.8708 -33.8702 -33.8530 -33.8394 -33.8214 -33.8141 -33.8129
   -33.8082 -33.8004 -33.7921 -33.7916 -33.7874 -33.7555 -33.7545 -33.7438
   -33.7425 -33.7382 -33.7320 -33.7220 -33.7150 -33.6982 -33.6895 -33.6829
   -33.6789 -33.6762 -33.6712 -33.6698 -33.6668 -33.6659 -33.6519 -33.6449
   -33.6411 -33.6402 -33.6316 -33.6259 -33.6221 -33.6215 -33.6202 -33.6112
   -33.6090 -33.6024 -33.5938 -33.5811 -33.5787 -33.5671 -33.5563 -33.5443
   -33.5339 -33.5326 -33.5244 -33.5167 -33.5001 -33.4856 -33.4769 -33.4648
   -17.7068 -13.4909 -13.3143 -13.2637 -13.1294 -13.0947 -12.8783 -12.7501
   -12.7205 -12.6810 -12.6786 -12.5398 -12.5011 -12.4986 -12.4617 -12.4039
   -12.3237 -12.2910 -12.2444 -12.2267 -12.2125 -12.1439 -12.1192 -12.0763
   -12.0669 -12.0555 -12.0463 -12.0250 -12.0110 -12.0009 -11.9800 -11.9505
   -11.9293 -11.9229 -11.8716 -11.8478 -11.8415 -11.8070 -11.8009 -11.7243
   -11.7024 -11.6980 -11.6886 -11.6781 -11.6734 -11.6122 -11.5967 -11.5946
   -11.5678 -11.5585 -11.5377 -11.4809 -11.4658 -11.4566 -11.4436 -11.4362
   -11.4114 -11.3993 -11.3643 -11.3366  -3.9803  -3.3737  -2.5414  -0.8210
    -0.5827  -0.5715  -0.5196  -0.4967  -0.4931  -0.3864  -0.3852  -0.3826
    -0.3141  -0.1618  -0.1197  -0.1175  -0.0756  -0.0669  -0.0491  -0.0217
    -0.0048   0.0172   0.0827   0.0970   0.1151   0.1266   0.1399   0.1698
     0.1854   0.1961   0.2428   0.2741   0.3004   0.3172   0.3222   0.3526
     0.3849   0.4512   0.4891   0.5022   0.5124   0.5557   0.5727   0.5917
     0.6289   0.6563   0.6609   0.7249   0.7474   0.7734   0.8142   0.8162
     0.8310   0.9354   0.9950   1.0258   1.0932   1.1592   1.1782   1.1862
     1.2625   1.2840   1.2963   1.3215   1.3727   1.3744   1.3776   1.4221
     1.4364   1.4767   1.5090   1.5373   1.5561   1.5981   1.6172   1.6200
     1.6422   1.6507   1.6540   1.6934   1.7120   1.7866   1.8076   1.8911
     1.8967   1.9164   1.9359   1.9403   1.9692   1.9778   2.0058   2.0135
     2.0412   2.0704   2.0842   2.0917   2.1091   2.1455   2.1492   2.1574
     2.1646   2.2415   2.2700   2.2846   2.3015   2.3126   2.3247   2.3489
     2.3539   2.4194   2.4254   2.4444   2.4777   2.5024   2.5122   2.5511
     2.5621   2.6056   2.6114   2.6231   2.6266   2.6441   2.6829   2.6846
     2.7293   2.7491   2.7686   2.7934   2.8637   2.8794   2.8979   2.9321
     2.9695   2.9759   3.0113   3.0530   3.1178   3.1244   3.1574   3.2213
     3.2335   3.2381   3.2743   3.2754   3.3540   3.3672   3.3791   3.3855
     3.4160   3.4442   3.4493   3.4611   3.4881   3.5028   3.5340   3.5414
     3.6475   3.6519   3.6592   3.6969   3.7214   3.7686   3.8077   3.8664
     3.8773   3.9031   3.9367   3.9940   4.0757   4.0847   4.0949   4.1395
     4.1585   4.1824   4.1968   4.2712   4.2871   4.3009   4.3596   4.3626
     6.1256   6.3029   6.3392   6.5690   6.6415   6.7157   6.7765   6.7853
     6.8821   6.8907   6.9667   7.0876   7.0883   7.1660   7.2008   7.2715
     7.3907   7.4064   7.4242   7.4705   7.4798   7.5026   7.5541   7.5783
     7.6267   7.6466   7.6538   7.6788   7.6905   7.7078   7.7389   7.7596
     7.8232   7.8332   7.8513   7.8567   7.8869   7.8909   7.9134   7.9151
     7.9432   7.9635   7.9964   8.0065   8.0285   8.0510   8.0565   8.0697
     8.0841   8.0994   8.1097   8.1360   8.1669   8.2451   8.2655   8.3094
     8.3173   8.3381   8.3395   8.3719   8.3782   8.4621   8.5064   8.5264
     8.5360   8.5421   8.5712

[...]

          k =-0.5000 0.0000 0.0000 ( 20098 PWs)   bands (ev):

[...]

 ------ SPIN DOWN ----------

[...]

          k = 0.0000-0.5390-0.6582 ( 20040 PWs)   bands (ev):

[...]

          k =-0.5000-0.5390-0.6582 ( 20080 PWs)   bands (ev):

   -60.5718 -60.5700 -60.3496 -59.9633 -59.9612 -59.9610 -59.9471 -59.9470
   -59.9198 -59.8256 -59.8222 -59.8123 -59.8019 -59.7892 -59.7890 -59.7165
   -59.7117 -59.7069 -59.7064 -59.7027 -59.6946 -59.6519 -59.6459 -59.6430
   -34.6036 -34.5559 -34.4791 -34.4706 -34.4138 -34.4051 -34.3356 -34.2665
   -34.1642 -33.9206 -33.9103 -33.9082 -33.9049 -33.9022 -33.9017 -33.8882
   -33.8737 -33.8714 -33.8702 -33.8548 -33.8395 -33.8203 -33.8141 -33.8106
   -33.8083 -33.8005 -33.7932 -33.7928 -33.7883 -33.7567 -33.7530 -33.7442
   -33.7412 -33.7387 -33.7320 -33.7181 -33.7170 -33.6996 -33.6938 -33.6790
   -33.6777 -33.6758 -33.6705 -33.6662 -33.6648 -33.6644 -33.6620 -33.6459
   -33.6429 -33.6356 -33.6309 -33.6244 -33.6238 -33.6220 -33.6172 -33.6154
   -33.6124 -33.6055 -33.5919 -33.5908 -33.5666 -33.5577 -33.5543 -33.5477
   -33.5347 -33.5340 -33.5224 -33.5207 -33.4954 -33.4875 -33.4770 -33.4682
   -17.7066 -13.4159 -13.2318 -13.2005 -13.1230 -13.1058 -13.0393 -12.9822
   -12.9535 -12.6863 -12.5734 -12.4815 -12.4661 -12.3737 -12.3244 -12.2903
   -12.2713 -12.2667 -12.2488 -12.2187 -12.1710 -12.1359 -12.1051 -12.0913
   -12.0844 -12.0806 -12.0527 -12.0311 -12.0139 -12.0054 -11.9993 -11.9796
   -11.9476 -11.9437 -11.9159 -11.9061 -11.8803 -11.8034 -11.7939 -11.7142
   -11.7071 -11.6972 -11.6842 -11.6795 -11.6689 -11.6125 -11.5927 -11.5905
   -11.5719 -11.5518 -11.5303 -11.4733 -11.4703 -11.4518 -11.4450 -11.4437
   -11.4297 -11.3908 -11.3819 -11.3692  -3.9757  -3.3697  -2.5374  -0.6488
    -0.6379  -0.4466  -0.4195  -0.3887  -0.3421  -0.3112  -0.3109  -0.2838
    -0.2307  -0.2227  -0.2185  -0.1922  -0.1791  -0.1629  -0.1184  -0.0176
    -0.0142  -0.0024   0.0136   0.0518   0.0678   0.0931   0.0936   0.1330
     0.2620   0.2713   0.2827   0.2987   0.3000   0.4008   0.4101   0.4640
     0.5106   0.5237   0.5593   0.6234   0.6449   0.6555   0.7096   0.7465
     0.7704   0.8035   0.8366   0.8375   0.8544   0.8647   0.8915   0.9257
     0.9350   0.9648   0.9714   1.0149   1.0382   1.0495   1.0634   1.0778
     1.1035   1.1150   1.1214   1.1529   1.1559   1.2020   1.2760   1.2788
     1.3002   1.3429   1.3495   1.3502   1.4130   1.4286   1.4678   1.4724
     1.4771   1.5264   1.5905   1.6174   1.6453   1.6641   1.6901   1.7517
     1.7519   1.7837   1.7866   1.8149   1.8379   1.8917   1.9020   1.9175
     1.9422   1.9902   1.9906   2.0147   2.1198   2.1534   2.1679   2.2225
     2.2757   2.2873   2.3181   2.3443   2.3605   2.3773   2.4184   2.4330
     2.4482   2.4513   2.4775   2.5189   2.5206   2.5456   2.5709   2.5915
     2.6361   2.6526   2.6805   2.7237   2.7405   2.7424   2.7567   2.7771
     2.7809   2.8139   2.8162   2.8639   2.8851   2.8916   2.9050   2.9327
     2.9433   2.9960   3.0504   3.0668   3.0832   3.1525   3.1877   3.2171
     3.2241   3.2285   3.2539   3.3412   3.3487   3.4437   3.4501   3.4548
     3.4841   3.5017   3.5282   3.5579   3.6096   3.6324   3.6475   3.6679
     3.6924   3.7345   3.7435   3.7716   3.7730   3.8137   3.8343   3.8470
     3.8622   3.9060   3.9126   3.9397   3.9705   3.9748   3.9906   3.9966
     4.0378   4.0458   4.0639   4.0987   4.1076   4.1144   4.1676   4.1758
     6.2105   6.2799   6.4063   6.6318   6.7086   6.7836   6.8101   6.8218
     6.8256   6.8538   7.0786   7.0999   7.1197   7.2443   7.3183   7.3395
     7.3572   7.4003   7.4538   7.4762   7.5178   7.5796   7.6074   7.6481
     7.6577   7.6637   7.7348   7.7394   7.7948   7.8268   7.8392   7.8524
     7.8657   7.8727   7.8810   7.8966   7.9137   7.9153   7.9230   7.9246
     7.9333   7.9496   7.9641   7.9997   8.0421   8.0874   8.0980   8.1030
     8.1074   8.1126   8.1158   8.1249   8.1719   8.1946   8.2267   8.2481
     8.2639   8.2808   8.2867   8.3191   8.3418   8.3436   8.4497   8.4540
     8.4626   8.5198   8.5237

     the Fermi energy is     5.5008 ev

!    total energy              =   -5390.21710133 Ry
     Harris-Foulkes estimate   =   -5390.21710133 Ry
     estimated scf accuracy    <          9.8E-09 Ry

     The total energy is the sum of the following terms:

     one-electron contribution =   -3532.98762449 Ry
     hartree contribution      =    1995.34239893 Ry
     xc contribution           =    -854.71338627 Ry
     ewald contribution        =   -3004.48624070 Ry
     Hubbard energy            =       6.62775119 Ry
     smearing contrib. (-TS)   =      -0.00000000 Ry

     total magnetization       =     0.00 Bohr mag/cell
     absolute magnetization    =     0.00 Bohr mag/cell

     convergence has been achieved in  33 iterations
 forces --- starting time for forces:

     Forces acting on atoms (Ry/au):

 forces --- nonlocal contribution:
 forces --- local contribution:

     negative rho (up, down):  0.118E-01 0.118E-01
 forces --- NLCC contribution:
 forces --- entering force_hub:
           1  forces --- i/o, init_us_2, calbec, s_psi:
           1  forces --- dn/dtau:
           2  forces --- i/o, init_us_2, calbec, s_psi:
           2  forces --- dn/dtau:
           3  forces --- i/o, init_us_2, calbec, s_psi:
           3  forces --- dn/dtau:
           4  forces --- i/o, init_us_2, calbec, s_psi:
           4  forces --- dn/dtau:
           5  forces --- i/o, init_us_2, calbec, s_psi:
           5  forces --- dn/dtau:
           6  forces --- i/o, init_us_2, calbec, s_psi:
           6  forces --- dn/dtau:
           7  forces --- i/o, init_us_2, calbec, s_psi:
           7  forces --- dn/dtau:
           8  forces --- i/o, init_us_2, calbec, s_psi:
           8  forces --- dn/dtau:
           9  forces --- i/o, init_us_2, calbec, s_psi:
           9  forces --- dn/dtau:
          10  forces --- i/o, init_us_2, calbec, s_psi:
          10  forces --- dn/dtau:
          11  forces --- i/o, init_us_2, calbec, s_psi:
          11  forces --- dn/dtau:
          12  forces --- i/o, init_us_2, calbec, s_psi:
          12  forces --- dn/dtau:
          13  forces --- i/o, init_us_2, calbec, s_psi:
          13  forces --- dn/dtau:
          14  forces --- i/o, init_us_2, calbec, s_psi:
          14  forces --- dn/dtau:
          15  forces --- i/o, init_us_2, calbec, s_psi:
          15  forces --- dn/dtau:
          16  forces --- i/o, init_us_2, calbec, s_psi:
          16  forces --- dn/dtau:
 forces --- Hubbard contribution:
 forces --- ionic contribution:
 forces --- SCF contribution:
     atom   1 type  2   force =    -0.00532666    0.00000000   -0.00267458
     atom   2 type  2   force =    -0.12349882    0.00000000   -0.02126286
     atom   3 type  2   force =    -0.00304620    0.00523351   -0.00973496
     atom   4 type  2   force =    -0.01577894    0.02119007   -0.01717214
     atom   5 type  2   force =    -0.00304620   -0.00523351   -0.00973496
     atom   6 type  2   force =    -0.01577894   -0.02119007   -0.01717214
     atom   7 type  2   force =     0.02957324    0.14713281    0.02230558
     atom   8 type  2   force =     0.00033362    0.00692054    0.00560957
     atom   9 type  2   force =     0.00884216    0.00000000    0.01916206
     atom  10 type  2   force =     0.00036775    0.00000000    0.01154835
     atom  11 type  2   force =     0.02957324   -0.14713281    0.02230558
     atom  12 type  2   force =     0.00033362   -0.00692054    0.00560957
     atom  13 type  2   force =     0.04168258    0.00735649    0.02049855
     atom  14 type  2   force =     0.01242824    0.00277954    0.01266234
     atom  15 type  2   force =     0.01242558    0.00000000    0.01735175
     atom  16 type  2   force =     0.00746541    0.00000000    0.01337445
     atom  17 type  2   force =     0.04168258   -0.00735649    0.02049855
     atom  18 type  2   force =     0.01242824   -0.00277954    0.01266234
     atom  19 type  2   force =    -0.00992319    0.00000000   -0.01243295
     atom  20 type  2   force =    -0.02693387    0.00000000   -0.02060944
     atom  21 type  2   force =    -0.00625243    0.00248048   -0.01293210
     atom  22 type  2   force =    -0.00956926    0.00564639   -0.01757097
     atom  23 type  2   force =    -0.00625243   -0.00248048   -0.01293210
     atom  24 type  2   force =    -0.00956926   -0.00564639   -0.01757097
     atom  25 type  1   force =    -0.00146620   -0.00532096    0.00259091
     atom  26 type  1   force =     0.02027356   -0.04352726    0.00515793
     atom  27 type  1   force =    -0.00330599    0.00000000    0.00194769
     atom  28 type  1   force =    -0.00099451    0.00000000   -0.00039667
     atom  29 type  1   force =    -0.00146620    0.00532096    0.00259091
     atom  30 type  1   force =     0.02027356    0.04352726    0.00515793
     atom  31 type  3   force =     0.02974924    0.00000000   -0.02065973
     atom  32 type  1   force =     0.00391691    0.00000000   -0.00380191
     atom  33 type  1   force =     0.01404851   -0.03526154    0.00755261
     atom  34 type  1   force =     0.00502960   -0.00595892   -0.00250047
     atom  35 type  1   force =     0.01404851    0.03526154    0.00755261
     atom  36 type  1   force =     0.00502960    0.00595892   -0.00250047
     atom  37 type  1   force =    -0.01017913    0.00000000   -0.00151583
     atom  38 type  1   force =    -0.00472381    0.00000000   -0.00276242
     atom  39 type  1   force =    -0.00853015   -0.00837033   -0.00059520
     atom  40 type  1   force =    -0.00503685   -0.00282381   -0.00222015
     atom  41 type  1   force =    -0.00853015    0.00837033   -0.00059520
     atom  42 type  1   force =    -0.00503685    0.00282381   -0.00222015
     atom  43 type  1   force =     0.00315724   -0.00255022    0.00271340
     atom  44 type  1   force =     0.00227717   -0.00656783    0.00316208
     atom  45 type  1   force =     0.00393568    0.00000000    0.00213299
     atom  46 type  1   force =     0.00404774    0.00000000    0.00156212
     atom  47 type  1   force =     0.00315724    0.00255022    0.00271340
     atom  48 type  1   force =     0.00227717    0.00656783    0.00316208
     atom  49 type  1   force =     0.00054503    0.00000000   -0.00246146
     atom  50 type  1   force =     0.00196799    0.00000000    0.00755524
     atom  51 type  1   force =    -0.00000257   -0.00039824   -0.00095522
     atom  52 type  1   force =     0.00059100   -0.00040294    0.00509449
     atom  53 type  1   force =    -0.00000257    0.00039824   -0.00095522
     atom  54 type  1   force =     0.00059100    0.00040294    0.00509449
     atom  55 type  1   force =    -0.00242106   -0.00056060   -0.00718351
     atom  56 type  1   force =    -0.00104754   -0.00049955    0.00243548
     atom  57 type  1   force =    -0.00073677    0.00000000   -0.00483392
     atom  58 type  1   force =    -0.00031994    0.00000000    0.00084533
     atom  59 type  1   force =    -0.00242106    0.00056060   -0.00718351
     atom  60 type  1   force =    -0.00104754    0.00049955    0.00243548
[...]
     atom  70 type  1   force =    -0.01484266    0.00000000   -0.00741310
     atom  71 type  1   force =    -0.01060052    0.00079607   -0.00983803
     atom  72 type  1   force =    -0.05438511    0.01187877   -0.00796753
     atom  73 type  1   force =     0.04998744    0.00000000   -0.00121966
     atom  74 type  1   force =     0.01050853    0.00000000    0.00894414
     atom  75 type  1   force =     0.01545891   -0.00213803    0.00664588
     atom  76 type  1   force =     0.00605348   -0.00057791    0.00842999
     atom  77 type  1   force =     0.01545891    0.00213803    0.00664588
     atom  78 type  1   force =     0.00605348    0.00057791    0.00842999
     atom  79 type  1   force =     0.00480271    0.00000000   -0.01457843
     atom  80 type  1   force =     0.00473647    0.00000000    0.01475506
     atom  81 type  1   force =     0.00137435   -0.00107625   -0.00400632
     atom  82 type  1   force =     0.00100837   -0.00125518    0.00732738
     atom  83 type  1   force =     0.00137435    0.00107625   -0.00400632
     atom  84 type  1   force =     0.00100837    0.00125518    0.00732738

     Total force =     0.310015     Total SCF correction =     0.000443

     entering subroutine stress ...

     negative rho (up, down):  0.118E-01 0.118E-01
          total   stress  (Ry/bohr**3)                   (kbar)     P=   21.68
   0.00022183   0.00000000   0.00004491         32.63      0.00      6.61
   0.00000000   0.00022531   0.00000000          0.00     33.14      0.00
   0.00004491   0.00000000  -0.00000509          6.61      0.00     -0.75

     Writing output data file v2o5.O31-FCH.save

     General routines

     Parallel routines

   This run was terminated on:   0:41:57  11Sep2018

   JOB DONE.